--Link1--
%chk=conf1
#HF/6-31G* SCF=tight Test Pop=MK iop(6/33=2) iop(6/42=6) opt

remark line goes here

0   1
    C    6.1590000000       -3.4010000000        0.0180000000     
    N    5.4700000000       -2.2120000000        0.4570000000     
    C    5.6510000000       -1.0210000000       -0.2160000000     
    O    6.2710000000       -0.9620000000       -1.2820000000     
    C    4.9160000000        0.2330000000        0.3580000000     
    C    4.6760000000        0.2050000000        1.8760000000     
    C    3.5690000000        0.3970000000       -0.4040000000     
    C    2.5130000000       -0.6910000000       -0.1710000000     
    C    1.2730000000       -0.4450000000       -1.0360000000     
    C    0.2400000000       -1.5140000000       -0.8180000000     
    C   -0.9290000000       -1.3920000000       -0.1680000000     
    C   -1.4490000000       -0.1730000000        0.5410000000     
    C   -2.4810000000        0.6120000000       -0.2790000000     
    C   -3.8150000000       -0.1160000000       -0.5390000000     
    C   -4.9860000000        0.1280000000        0.4570000000     
    C   -4.5030000000        0.2440000000        1.9120000000     
    N   -5.9620000000       -0.9960000000        0.4220000000     
    C   -6.4970000000       -1.4830000000       -0.7530000000     
    C   -7.6400000000       -2.4410000000       -0.5420000000     
    O   -6.1120000000       -1.1760000000       -1.8750000000     
    C   -5.8500000000        1.4040000000        0.1750000000     
    O   -7.0310000000        1.4640000000        0.5320000000     
    N   -5.2010000000        2.4980000000       -0.3590000000     
    C   -5.9470000000        3.6920000000       -0.6750000000     
    N    5.7650000000        1.3870000000       -0.0400000000     
    C    6.9710000000        1.6810000000        0.5640000000     
    C    7.7610000000        2.7400000000       -0.1600000000     
    O    7.3950000000        1.1420000000        1.5790000000     
    H    5.7340000000       -4.2610000000        0.5410000000     
    H    7.2200000000       -3.3050000000        0.2620000000     
    H    6.0430000000       -3.5270000000       -1.0620000000     
    H    5.2210000000       -2.1710000000        1.4350000000     
    H    5.5770000000       -0.0590000000        2.4360000000     
    H    4.3310000000        1.1810000000        2.2350000000     
    H    3.9270000000       -0.5380000000        2.1660000000     
    H    3.7750000000        0.4450000000       -1.4830000000     
    H    3.1320000000        1.3710000000       -0.1420000000     
    H    2.9270000000       -1.6770000000       -0.4070000000     
    H    2.2100000000       -0.7070000000        0.8820000000     
    H    0.8670000000        0.5520000000       -0.8350000000     
    H    1.5520000000       -0.4520000000       -2.0960000000     
    H    0.4730000000       -2.4810000000       -1.2630000000     
    H   -1.5720000000       -2.2710000000       -0.1220000000     
    H   -0.6220000000        0.5000000000        0.7960000000     
    H   -1.8690000000       -0.4870000000        1.5010000000     
    H   -2.6540000000        1.5800000000        0.2020000000     
    H   -2.0290000000        0.8440000000       -1.2530000000     
    H   -3.6240000000       -1.1930000000       -0.6140000000     
    H   -4.1430000000        0.1910000000       -1.5400000000     
    H   -3.9970000000       -0.6720000000        2.2340000000     
    H   -3.8310000000        1.0950000000        2.0620000000     
    H   -5.3460000000        0.3940000000        2.5980000000     
    H   -6.6390000000       -0.9600000000        1.1770000000     
    H   -7.5480000000       -3.2710000000       -1.2480000000     
    H   -7.6340000000       -2.8530000000        0.4710000000     
    H   -8.5840000000       -1.9150000000       -0.7110000000     
    H   -4.3880000000        2.3220000000       -0.9320000000     
    H   -6.5860000000        3.4910000000       -1.5390000000     
    H   -5.2410000000        4.4900000000       -0.9120000000     
    H   -6.5670000000        3.9840000000        0.1770000000     
    H    5.7770000000        1.5460000000       -1.0420000000     
    H    8.5400000000        2.2590000000       -0.7580000000     
    H    8.2190000000        3.4090000000        0.5740000000     
    H    7.1220000000        3.3390000000       -0.8140000000     


