--Link1--
%chk=conf10
#HF/6-31G* SCF=tight Test Pop=MK iop(6/33=2) iop(6/42=6) opt

remark line goes here

0   1
    C   -3.8600000000        2.8380000000       -2.0000000000     
    N   -3.9790000000        1.4090000000       -1.8660000000     
    C   -4.3820000000        0.8360000000       -0.6690000000     
    O   -4.7520000000        1.5130000000        0.2870000000     
    C   -4.2660000000       -0.7210000000       -0.6320000000     
    C   -5.0250000000       -1.2620000000        0.5860000000     
    C   -2.7710000000       -1.1470000000       -0.6470000000     
    C   -1.9620000000       -1.0000000000        0.6520000000     
    C   -1.7340000000        0.4430000000        1.1050000000     
    C   -0.6830000000        0.5070000000        2.1780000000     
    C    0.5340000000        1.0680000000        2.0810000000     
    C    1.1090000000        1.7720000000        0.8830000000     
    C    1.6880000000        0.8340000000       -0.1790000000     
    C    2.7230000000       -0.2010000000        0.2810000000     
    C    4.1510000000        0.2510000000        0.6820000000     
    C    4.2340000000        1.0560000000        1.9840000000     
    N    4.8630000000        0.9170000000       -0.4280000000     
    C    4.7160000000        2.2100000000       -0.8510000000     
    C    5.6260000000        2.5830000000       -1.9920000000     
    O    3.9430000000        3.0220000000       -0.3570000000     
    C    4.9930000000       -1.0610000000        0.8960000000     
    O    5.9650000000       -1.3250000000        0.1820000000     
    N    4.5770000000       -1.9030000000        1.9060000000     
    C    5.3120000000       -3.1000000000        2.2300000000     
    N   -4.9360000000       -1.1520000000       -1.8910000000     
    C   -5.1170000000       -2.4620000000       -2.2690000000     
    C   -5.9460000000       -2.6240000000       -3.5150000000     
    O   -4.6690000000       -3.4280000000       -1.6630000000     
    H   -4.7230000000        3.3350000000       -1.5490000000     
    H   -2.9470000000        3.1620000000       -1.4920000000     
    H   -3.8010000000        3.0840000000       -3.0620000000     
    H   -3.4940000000        0.8180000000       -2.5310000000     
    H   -4.9260000000       -2.3490000000        0.6760000000     
    H   -6.0950000000       -1.0340000000        0.5130000000     
    H   -4.6670000000       -0.8180000000        1.5210000000     
    H   -2.2350000000       -0.6220000000       -1.4480000000     
    H   -2.7040000000       -2.2080000000       -0.9170000000     
    H   -0.9860000000       -1.4720000000        0.4740000000     
    H   -2.4280000000       -1.5790000000        1.4580000000     
    H   -1.4650000000        1.0640000000        0.2450000000     
    H   -2.6550000000        0.8570000000        1.5250000000     
    H   -0.9590000000        0.0480000000        3.1270000000     
    H    1.1770000000        1.0380000000        2.9590000000     
    H    1.8640000000        2.4830000000        1.2260000000     
    H    0.3370000000        2.3970000000        0.4170000000     
    H    2.0850000000        1.4240000000       -1.0110000000     
    H    0.8500000000        0.2720000000       -0.6150000000     
    H    2.2820000000       -0.7930000000        1.0930000000     
    H    2.8300000000       -0.9120000000       -0.5520000000     
    H    5.2760000000        1.1470000000        2.3170000000     
    H    3.6790000000        0.5740000000        2.7960000000     
    H    3.8520000000        2.0730000000        1.8870000000     
    H    5.6020000000        0.3530000000       -0.8460000000     
    H    5.0770000000        3.2150000000       -2.6960000000     
    H    5.9770000000        1.6990000000       -2.5320000000     
    H    6.4870000000        3.1310000000       -1.5990000000     
    H    3.8620000000       -1.5960000000        2.5510000000     
    H    4.6690000000       -3.7520000000        2.8260000000     
    H    5.6220000000       -3.6150000000        1.3170000000     
    H    6.1950000000       -2.8210000000        2.8110000000     
    H   -5.5420000000       -0.4640000000       -2.3240000000     
    H   -6.9680000000       -2.8910000000       -3.2340000000     
    H   -5.5140000000       -3.4180000000       -4.1320000000     
    H   -5.9630000000       -1.7050000000       -4.1080000000     


