--Link1--
%chk=conf11
#HF/6-31G* SCF=tight Test Pop=MK iop(6/33=2) iop(6/42=6) opt

remark line goes here

0   1
    C    7.5210000000       -2.3080000000       -0.0410000000     
    N    6.2410000000       -1.6980000000        0.2270000000     
    C    6.1580000000       -0.3700000000        0.6050000000     
    O    7.1580000000        0.3430000000        0.6740000000     
    C    4.7180000000        0.1410000000        0.9720000000     
    C    4.3540000000       -0.5800000000        2.2870000000     
    C    3.7120000000       -0.2130000000       -0.1580000000     
    C    2.3500000000        0.5030000000       -0.1780000000     
    C    1.3290000000        0.1180000000        0.8940000000     
    C    1.0160000000       -1.3510000000        0.9300000000     
    C   -0.0140000000       -1.9680000000        0.3270000000     
    C   -1.0470000000       -1.3380000000       -0.5630000000     
    C   -2.4110000000       -1.2720000000        0.1320000000     
    C   -3.4610000000       -0.6240000000       -0.7810000000     
    C   -4.8870000000       -0.4610000000       -0.1730000000     
    C   -5.4660000000       -1.8230000000        0.2390000000     
    N   -5.7240000000        0.1600000000       -1.2400000000     
    C   -7.0530000000        0.4760000000       -1.0470000000     
    C   -7.7920000000        0.8230000000       -2.3120000000     
    O   -7.5990000000        0.4970000000        0.0480000000     
    C   -4.7690000000        0.4830000000        1.0660000000     
    O   -4.6040000000        0.0670000000        2.2110000000     
    N   -4.6690000000        1.8270000000        0.7410000000     
    C   -4.6530000000        2.8190000000        1.7840000000     
    N    4.7780000000        1.5900000000        1.2600000000     
    C    5.0400000000        2.6610000000        0.4630000000     
    C    5.2830000000        2.4810000000       -1.0090000000     
    O    5.0320000000        3.7830000000        0.9720000000     
    H    8.0200000000       -2.5080000000        0.9100000000     
    H    7.3530000000       -3.2460000000       -0.5760000000     
    H    8.1400000000       -1.6400000000       -0.6460000000     
    H    5.4520000000       -2.3120000000        0.3770000000     
    H    3.4860000000       -0.1350000000        2.7780000000     
    H    4.1510000000       -1.6440000000        2.1290000000     
    H    5.1800000000       -0.5140000000        3.0070000000     
    H    3.5440000000       -1.2970000000       -0.1810000000     
    H    4.1890000000       -0.0010000000       -1.1240000000     
    H    1.8950000000        0.3020000000       -1.1590000000     
    H    2.4920000000        1.5880000000       -0.1440000000     
    H    1.6690000000        0.4360000000        1.8830000000     
    H    0.4120000000        0.6950000000        0.7230000000     
    H    1.6760000000       -1.9610000000        1.5440000000     
    H   -0.1240000000       -3.0420000000        0.4800000000     
    H   -0.7420000000       -0.3360000000       -0.8840000000     
    H   -1.1250000000       -1.9400000000       -1.4770000000     
    H   -2.3120000000       -0.7000000000        1.0600000000     
    H   -2.7220000000       -2.2870000000        0.4050000000     
    H   -3.0900000000        0.3620000000       -1.0940000000     
    H   -3.5330000000       -1.2200000000       -1.7010000000     
    H   -5.5200000000       -2.5020000000       -0.6200000000     
    H   -4.8700000000       -2.3060000000        1.0190000000     
    H   -6.4790000000       -1.7260000000        0.6440000000     
    H   -5.4740000000       -0.0900000000       -2.1880000000     
    H   -7.1040000000        1.0240000000       -3.1390000000     
    H   -8.4450000000       -0.0090000000       -2.5850000000     
    H   -8.3900000000        1.7220000000       -2.1420000000     
    H   -5.1010000000        2.0760000000       -0.1400000000     
    H   -4.4090000000        3.7870000000        1.3400000000     
    H   -3.9080000000        2.5570000000        2.5400000000     
    H   -5.6430000000        2.8610000000        2.2470000000     
    H    4.7430000000        1.8700000000        2.2330000000     
    H    4.3290000000        2.4340000000       -1.5380000000     
    H    5.8460000000        3.3430000000       -1.3810000000     
    H    5.8760000000        1.5930000000       -1.2240000000     


