--Link1--
%chk=conf12
#HF/6-31G* SCF=tight Test Pop=MK iop(6/33=2) iop(6/42=6) opt

remark line goes here

0   1
    C    6.0880000000       -3.7280000000       -1.6140000000     
    N    5.1090000000       -2.8210000000       -1.0700000000     
    C    5.4950000000       -1.6290000000       -0.4840000000     
    O    6.6710000000       -1.2700000000       -0.4690000000     
    C    4.3350000000       -0.7680000000        0.1250000000     
    C    3.5260000000       -1.6020000000        1.1270000000     
    C    3.4430000000       -0.3110000000       -1.0710000000     
    C    2.3070000000        0.6830000000       -0.7660000000     
    C    0.9950000000        0.0960000000       -0.2340000000     
    C    0.3760000000       -0.9270000000       -1.1440000000     
    C   -0.5690000000       -0.7120000000       -2.0730000000     
    C   -1.1820000000        0.6060000000       -2.4570000000     
    C   -2.6730000000        0.6940000000       -2.1100000000     
    C   -2.9290000000        0.7120000000       -0.5940000000     
    C   -4.4190000000        0.9120000000       -0.1990000000     
    C   -5.2740000000       -0.2310000000       -0.7700000000     
    N   -4.8560000000        2.2470000000       -0.6620000000     
    C   -6.1790000000        2.6380000000       -0.6840000000     
    C   -6.3650000000        4.1130000000       -0.9260000000     
    O   -7.1340000000        1.8870000000       -0.5210000000     
    C   -4.4560000000        0.9690000000        1.3650000000     
    O   -4.4320000000        2.0410000000        1.9730000000     
    N   -4.3760000000       -0.2440000000        2.0220000000     
    C   -4.4590000000       -0.2970000000        3.4610000000     
    N    4.9200000000        0.4410000000        0.7480000000     
    C    5.6840000000        0.6080000000        1.8620000000     
    C    5.9290000000       -0.5420000000        2.7950000000     
    O    6.1340000000        1.7290000000        2.1010000000     
    H    5.5770000000       -4.4480000000       -2.2570000000     
    H    6.5780000000       -4.2510000000       -0.7880000000     
    H    6.8360000000       -3.1780000000       -2.1920000000     
    H    4.1670000000       -3.1640000000       -0.9420000000     
    H    4.1660000000       -2.2670000000        1.7160000000     
    H    2.8050000000       -2.2530000000        0.6210000000     
    H    2.9770000000       -0.9680000000        1.8310000000     
    H    4.1030000000        0.1850000000       -1.7990000000     
    H    3.0420000000       -1.1810000000       -1.6050000000     
    H    2.6530000000        1.4560000000       -0.0720000000     
    H    2.0760000000        1.2100000000       -1.7020000000     
    H    0.2930000000        0.9200000000       -0.0580000000     
    H    1.1400000000       -0.3570000000        0.7500000000     
    H    0.7220000000       -1.9500000000       -1.0060000000     
    H   -0.9270000000       -1.5710000000       -2.6420000000     
    H   -0.6480000000        1.4510000000       -2.0100000000     
    H   -1.0690000000        0.7210000000       -3.5420000000     
    H   -3.2030000000       -0.1470000000       -2.5730000000     
    H   -3.0720000000        1.6090000000       -2.5610000000     
    H   -2.3260000000        1.5140000000       -0.1460000000     
    H   -2.5620000000       -0.2230000000       -0.1530000000     
    H   -5.5030000000       -0.0720000000       -1.8290000000     
    H   -4.7610000000       -1.1960000000       -0.6850000000     
    H   -6.2230000000       -0.3400000000       -0.2330000000     
    H   -4.2300000000        2.9910000000       -0.3730000000     
    H   -6.5680000000        4.6090000000        0.0270000000     
    H   -7.2090000000        4.2620000000       -1.6060000000     
    H   -5.4770000000        4.5590000000       -1.3830000000     
    H   -4.6300000000       -1.0820000000        1.5170000000     
    H   -5.4910000000       -0.1000000000        3.7620000000     
    H   -4.1600000000       -1.2950000000        3.7900000000     
    H   -3.8000000000        0.4550000000        3.9050000000     
    H    5.0020000000        1.2600000000        0.1550000000     
    H    6.7340000000       -0.2740000000        3.4860000000     
    H    6.2500000000       -1.4310000000        2.2510000000     
    H    5.0290000000       -0.7470000000        3.3780000000     


