--Link1--
%chk=conf13
#HF/6-31G* SCF=tight Test Pop=MK iop(6/33=2) iop(6/42=6) opt

remark line goes here

0   1
    C    7.4340000000        0.7750000000        2.0230000000     
    N    6.1600000000        0.1700000000        1.7190000000     
    C    5.1920000000        0.8860000000        1.0430000000     
    O    5.4310000000        1.9880000000        0.5410000000     
    C    3.8230000000        0.1600000000        0.8130000000     
    C    3.3610000000       -0.6210000000        2.0540000000     
    C    4.0360000000       -0.8080000000       -0.3870000000     
    C    2.8920000000       -1.7810000000       -0.7190000000     
    C    1.6010000000       -1.1070000000       -1.1820000000     
    C    0.5800000000       -2.1240000000       -1.6100000000     
    C   -0.5570000000       -2.4380000000       -0.9680000000     
    C   -1.0280000000       -1.8840000000        0.3470000000     
    C   -2.0040000000       -0.7130000000        0.1910000000     
    C   -3.3630000000       -1.1360000000       -0.3920000000     
    C   -4.3520000000        0.0350000000       -0.5890000000     
    C   -5.7170000000       -0.4610000000       -1.0910000000     
    N   -3.8040000000        1.0180000000       -1.5580000000     
    C   -3.4900000000        0.7730000000       -2.8690000000     
    C   -2.9700000000        1.9770000000       -3.6070000000     
    O   -3.6270000000       -0.3120000000       -3.4230000000     
    C   -4.5710000000        0.8850000000        0.7080000000     
    O   -4.3600000000        2.1070000000        0.6930000000     
    N   -5.0280000000        0.3670000000        1.8800000000     
    C   -5.1310000000       -1.0020000000        2.3210000000     
    N    2.8830000000        1.2280000000        0.4110000000     
    C    2.2690000000        2.0790000000        1.3070000000     
    C    1.5640000000        3.2350000000        0.6470000000     
    O    2.2770000000        1.9400000000        2.5240000000     
    H    8.1210000000       -0.0090000000        2.3510000000     
    H    7.2940000000        1.5050000000        2.8250000000     
    H    7.8350000000        1.2770000000        1.1390000000     
    H    5.8710000000       -0.6060000000        2.2990000000     
    H    3.9020000000       -1.5690000000        2.1540000000     
    H    2.2920000000       -0.8540000000        2.0070000000     
    H    3.5450000000       -0.0650000000        2.9790000000     
    H    4.9260000000       -1.4220000000       -0.1920000000     
    H    4.2750000000       -0.2280000000       -1.2900000000     
    H    2.6880000000       -2.4290000000        0.1420000000     
    H    3.2490000000       -2.4480000000       -1.5160000000     
    H    1.1930000000       -0.4720000000       -0.3930000000     
    H    1.8080000000       -0.4490000000       -2.0340000000     
    H    0.7840000000       -2.6240000000       -2.5570000000     
    H   -1.2130000000       -3.1750000000       -1.4310000000     
    H   -0.1750000000       -1.5600000000        0.9540000000     
    H   -1.5020000000       -2.6920000000        0.9180000000     
    H   -1.5450000000        0.0620000000       -0.4350000000     
    H   -2.1550000000       -0.2690000000        1.1810000000     
    H   -3.1980000000       -1.6370000000       -1.3530000000     
    H   -3.7980000000       -1.9050000000        0.2530000000     
    H   -5.6330000000       -0.9990000000       -2.0400000000     
    H   -6.2030000000       -1.1380000000       -0.3850000000     
    H   -6.4020000000        0.3810000000       -1.2520000000     
    H   -3.7290000000        1.9680000000       -1.1990000000     
    H   -3.7590000000        2.3710000000       -4.2520000000     
    H   -2.6440000000        2.7630000000       -2.9190000000     
    H   -2.1100000000        1.6800000000       -4.2150000000     
    H   -5.0610000000        1.0770000000        2.6040000000     
    H   -4.1280000000       -1.3800000000        2.5350000000     
    H   -5.7250000000       -1.0210000000        3.2380000000     
    H   -5.6120000000       -1.6260000000        1.5700000000     
    H    3.1570000000        1.6930000000       -0.4480000000     
    H    0.6120000000        3.4120000000        1.1560000000     
    H    2.1920000000        4.1260000000        0.7190000000     
    H    1.3520000000        3.0260000000       -0.4060000000     


