--Link1--
%chk=conf14
#HF/6-31G* SCF=tight Test Pop=MK iop(6/33=2) iop(6/42=6) opt

remark line goes here

0   1
    C    7.4940000000       -2.5900000000        0.1060000000     
    N    6.2890000000       -1.8150000000        0.2730000000     
    C    6.3400000000       -0.4350000000        0.2350000000     
    O    7.4150000000        0.1720000000        0.2240000000     
    C    4.9750000000        0.3220000000        0.3730000000     
    C    4.6290000000        0.3150000000        1.8750000000     
    C    3.8230000000       -0.3440000000       -0.4260000000     
    C    2.5180000000        0.4670000000       -0.4740000000     
    C    1.4480000000       -0.1730000000       -1.3660000000     
    C    0.9780000000       -1.5100000000       -0.8670000000     
    C   -0.1120000000       -1.7580000000       -0.1220000000     
    C   -1.0830000000       -0.7500000000        0.4240000000     
    C   -2.4540000000       -0.8820000000       -0.2470000000     
    C   -3.4350000000        0.1670000000        0.2930000000     
    C   -4.8970000000        0.0700000000       -0.2380000000     
    C   -4.9320000000        0.1200000000       -1.7720000000     
    N   -5.6250000000        1.2390000000        0.3370000000     
    C   -6.9660000000        1.4620000000        0.1020000000     
    C   -7.4430000000        2.8300000000        0.5120000000     
    O   -7.7240000000        0.6280000000       -0.3770000000     
    C   -5.4970000000       -1.2750000000        0.2830000000     
    O   -5.4510000000       -2.3220000000       -0.3590000000     
    N   -5.9050000000       -1.2330000000        1.6070000000     
    C   -6.5750000000       -2.3680000000        2.1880000000     
    N    5.2520000000        1.7210000000       -0.0240000000     
    C    5.4270000000        2.1000000000       -1.3400000000     
    C    5.9760000000        3.4940000000       -1.4960000000     
    O    5.1750000000        1.3950000000       -2.3100000000     
    H    8.2900000000       -2.1940000000        0.7430000000     
    H    7.2810000000       -3.6260000000        0.3790000000     
    H    7.8050000000       -2.5370000000       -0.9410000000     
    H    5.4190000000       -2.2740000000        0.0450000000     
    H    3.7790000000        0.9700000000        2.0960000000     
    H    5.4730000000        0.6740000000        2.4760000000     
    H    4.3870000000       -0.6940000000        2.2270000000     
    H    3.5960000000       -1.3190000000        0.0250000000     
    H    4.1510000000       -0.5740000000       -1.4460000000     
    H    2.7130000000        1.4730000000       -0.8610000000     
    H    2.1160000000        0.5910000000        0.5380000000     
    H    1.8400000000       -0.3000000000       -2.3830000000     
    H    0.6040000000        0.5190000000       -1.4630000000     
    H    1.5830000000       -2.3620000000       -1.1760000000     
    H   -0.3270000000       -2.7950000000        0.1340000000     
    H   -1.1820000000       -0.9200000000        1.5030000000     
    H   -0.7090000000        0.2730000000        0.3090000000     
    H   -2.8420000000       -1.8920000000       -0.0740000000     
    H   -2.3350000000       -0.7590000000       -1.3300000000     
    H   -3.4450000000        0.1070000000        1.3900000000     
    H   -3.0330000000        1.1620000000        0.0540000000     
    H   -5.9570000000        0.0820000000       -2.1550000000     
    H   -4.4070000000       -0.7280000000       -2.2240000000     
    H   -4.4760000000        1.0430000000       -2.1460000000     
    H   -5.0670000000        2.0740000000        0.4640000000     
    H   -6.7190000000        3.3320000000        1.1610000000     
    H   -7.6020000000        3.4370000000       -0.3830000000     
    H   -8.3820000000        2.7310000000        1.0640000000     
    H   -6.1760000000       -0.3120000000        1.9290000000     
    H   -5.9990000000       -3.2780000000        2.0020000000     
    H   -6.6730000000       -2.2010000000        3.2630000000     
    H   -7.5650000000       -2.4640000000        1.7340000000     
    H    5.8890000000        2.1940000000        0.6080000000     
    H    5.8250000000        4.0870000000       -0.5890000000     
    H    5.4580000000        3.9940000000       -2.3190000000     
    H    7.0450000000        3.4350000000       -1.7130000000     


