--Link1--
%chk=conf15
#HF/6-31G* SCF=tight Test Pop=MK iop(6/33=2) iop(6/42=6) opt

remark line goes here

0   1
    C   -3.9280000000       -1.8130000000        3.1290000000     
    N   -3.7850000000       -1.3350000000        1.7770000000     
    C   -4.4400000000       -0.2010000000        1.3460000000     
    O   -5.1340000000        0.4850000000        2.1000000000     
    C   -4.2600000000        0.1770000000       -0.1610000000     
    C   -4.8810000000       -0.9440000000       -1.0110000000     
    C   -2.7610000000        0.3470000000       -0.5040000000     
    C   -2.0650000000        1.4800000000        0.2690000000     
    C   -0.5470000000        1.4980000000        0.0570000000     
    C   -0.1490000000        1.8190000000       -1.3560000000     
    C    0.4250000000        0.9950000000       -2.2480000000     
    C    0.7490000000       -0.4620000000       -2.0680000000     
    C    2.2530000000       -0.7370000000       -1.9690000000     
    C    2.8750000000       -0.1480000000       -0.6930000000     
    C    4.3500000000       -0.5520000000       -0.4380000000     
    C    5.2550000000        0.1110000000       -1.4940000000     
    N    4.5920000000       -2.0120000000       -0.4830000000     
    C    3.8110000000       -2.9220000000        0.2000000000     
    C    4.4040000000       -4.3060000000        0.2440000000     
    O    2.7370000000       -2.6670000000        0.7330000000     
    C    4.8790000000       -0.0760000000        0.9590000000     
    O    5.6620000000       -0.7630000000        1.6210000000     
    N    4.5350000000        1.2040000000        1.3470000000     
    C    4.9380000000        1.7070000000        2.6370000000     
    N   -5.0180000000        1.4290000000       -0.3330000000     
    C   -5.1540000000        2.1250000000       -1.5050000000     
    C   -6.0000000000        3.3650000000       -1.3900000000     
    O   -4.6510000000        1.7870000000       -2.5710000000     
    H   -4.8860000000       -2.3320000000        3.2160000000     
    H   -3.9010000000       -0.9770000000        3.8330000000     
    H   -3.1100000000       -2.5050000000        3.3410000000     
    H   -3.3370000000       -1.9430000000        1.1040000000     
    H   -4.3660000000       -1.8990000000       -0.8660000000     
    H   -5.9350000000       -1.0970000000       -0.7470000000     
    H   -4.8410000000       -0.7150000000       -2.0810000000     
    H   -2.6510000000        0.5320000000       -1.5790000000     
    H   -2.2280000000       -0.5920000000       -0.3070000000     
    H   -2.2500000000        1.3660000000        1.3430000000     
    H   -2.4870000000        2.4490000000       -0.0240000000     
    H   -0.1190000000        0.5490000000        0.3960000000     
    H   -0.1130000000        2.2680000000        0.7070000000     
    H   -0.3490000000        2.8430000000       -1.6700000000     
    H    0.6560000000        1.4010000000       -3.2330000000     
    H    0.3510000000       -0.9980000000       -2.9390000000     
    H    0.2370000000       -0.8890000000       -1.2000000000     
    H    2.7590000000       -0.3320000000       -2.8540000000     
    H    2.3940000000       -1.8230000000       -1.9950000000     
    H    2.2580000000       -0.4110000000        0.1740000000     
    H    2.8100000000        0.9440000000       -0.7660000000     
    H    6.3150000000       -0.0610000000       -1.2700000000     
    H    5.1040000000        1.1960000000       -1.5280000000     
    H    5.0700000000       -0.2940000000       -2.4940000000     
    H    5.5770000000       -2.2510000000       -0.4700000000     
    H    4.8740000000       -4.4640000000        1.2180000000     
    H    5.1510000000       -4.4470000000       -0.5430000000     
    H    3.6100000000       -5.0420000000        0.0940000000     
    H    3.7370000000        1.6470000000        0.9130000000     
    H    4.3340000000        1.2210000000        3.4080000000     
    H    5.9950000000        1.4940000000        2.8130000000     
    H    4.7670000000        2.7860000000        2.6580000000     
    H   -5.4930000000        1.7600000000        0.5050000000     
    H   -6.9360000000        3.2110000000       -1.9330000000     
    H   -5.4560000000        4.2090000000       -1.8230000000     
    H   -6.2330000000        3.6050000000       -0.3490000000     


