--Link1--
%chk=conf16
#HF/6-31G* SCF=tight Test Pop=MK iop(6/33=2) iop(6/42=6) opt

remark line goes here

0   1
    C    5.3070000000       -3.8700000000        0.1200000000     
    N    4.8830000000       -2.5140000000       -0.1150000000     
    C    5.1470000000       -1.5340000000        0.8290000000     
    O    5.5080000000       -1.8000000000        1.9740000000     
    C    4.7350000000       -0.0950000000        0.3800000000     
    C    5.4760000000        0.9630000000        1.2100000000     
    C    3.1930000000        0.0320000000        0.5630000000     
    C    2.6780000000       -0.0700000000        2.0070000000     
    C    1.1470000000       -0.0650000000        2.0910000000     
    C    0.5410000000        1.2460000000        1.6720000000     
    C   -0.2520000000        1.4730000000        0.6130000000     
    C   -0.6750000000        0.4770000000       -0.4300000000     
    C   -2.0550000000       -0.1330000000       -0.1630000000     
    C   -3.1900000000        0.9030000000       -0.1970000000     
    C   -4.6150000000        0.2960000000       -0.0650000000     
    C   -4.7440000000       -0.4690000000        1.2630000000     
    N   -4.8770000000       -0.5540000000       -1.2480000000     
    C   -5.9480000000       -1.4210000000       -1.3270000000     
    C   -6.1720000000       -1.9730000000       -2.7100000000     
    O   -6.6700000000       -1.7290000000       -0.3860000000     
    C   -5.6150000000        1.4940000000       -0.1700000000     
    O   -6.1340000000        1.8100000000       -1.2440000000     
    N   -5.7720000000        2.2610000000        0.9690000000     
    C   -6.7140000000        3.3530000000        0.9860000000     
    N    4.9980000000        0.1060000000       -1.0750000000     
    C    6.2660000000        0.0390000000       -1.6130000000     
    C    6.3620000000        0.5540000000       -3.0250000000     
    O    7.2370000000       -0.4140000000       -1.0220000000     
    H    4.8710000000       -4.5090000000       -0.6510000000     
    H    6.3980000000       -3.9130000000        0.0670000000     
    H    4.9780000000       -4.2000000000        1.1090000000     
    H    4.8780000000       -2.1810000000       -1.0700000000     
    H    6.5600000000        0.9020000000        1.0690000000     
    H    5.1650000000        1.9740000000        0.9250000000     
    H    5.3010000000        0.8420000000        2.2840000000     
    H    2.8710000000        0.9940000000        0.1430000000     
    H    2.6940000000       -0.7400000000       -0.0410000000     
    H    3.0720000000        0.7570000000        2.6090000000     
    H    3.0330000000       -0.9990000000        2.4660000000     
    H    0.8540000000       -0.2470000000        3.1330000000     
    H    0.7430000000       -0.9040000000        1.5160000000     
    H    0.7610000000        2.0870000000        2.3300000000     
    H   -0.6240000000        2.4870000000        0.4690000000     
    H    0.0610000000       -0.3300000000       -0.5140000000     
    H   -0.6730000000        0.9770000000       -1.4070000000     
    H   -2.2360000000       -0.9010000000       -0.9230000000     
    H   -2.0400000000       -0.6430000000        0.8070000000     
    H   -3.1230000000        1.4680000000       -1.1370000000     
    H   -3.0360000000        1.6350000000        0.6070000000     
    H   -4.2920000000       -1.4650000000        1.1990000000     
    H   -4.2490000000        0.0660000000        2.0820000000     
    H   -5.7890000000       -0.5930000000        1.5640000000     
    H   -4.6900000000       -0.0810000000       -2.1250000000     
    H   -6.4300000000       -3.0340000000       -2.6360000000     
    H   -6.9910000000       -1.4270000000       -3.1850000000     
    H   -5.2730000000       -1.8840000000       -3.3270000000     
    H   -5.5270000000        1.8530000000        1.8610000000     
    H   -6.5950000000        3.9680000000        0.0890000000     
    H   -6.5300000000        3.9560000000        1.8780000000     
    H   -7.7270000000        2.9430000000        1.0160000000     
    H    4.3640000000        0.7410000000       -1.5430000000     
    H    6.8590000000        1.5270000000       -3.0180000000     
    H    6.9410000000       -0.1530000000       -3.6250000000     
    H    5.3750000000        0.6600000000       -3.4840000000     


