--Link1--
%chk=conf17
#HF/6-31G* SCF=tight Test Pop=MK iop(6/33=2) iop(6/42=6) opt

remark line goes here

0   1
    C   -6.6390000000        2.9990000000       -0.1520000000     
    N   -5.5150000000        2.1310000000        0.0980000000     
    C   -5.6230000000        0.7720000000       -0.1300000000     
    O   -6.6020000000        0.2830000000       -0.6990000000     
    C   -4.3670000000       -0.0910000000        0.2270000000     
    C   -3.7140000000        0.3330000000        1.5530000000     
    C   -3.3640000000        0.0920000000       -0.9450000000     
    C   -2.0800000000       -0.7400000000       -0.8180000000     
    C   -1.1680000000       -0.5320000000       -2.0310000000     
    C    0.0840000000       -1.3540000000       -1.9100000000     
    C    1.3430000000       -0.9040000000       -1.7900000000     
    C    1.7960000000        0.5290000000       -1.7740000000     
    C    1.8290000000        1.1420000000       -0.3720000000     
    C    2.7550000000        0.4730000000        0.6570000000     
    C    4.2860000000        0.5350000000        0.3850000000     
    C    4.7200000000        1.9790000000        0.0860000000     
    N    4.6250000000       -0.4130000000       -0.6980000000     
    C    5.8360000000       -0.4100000000       -1.3590000000     
    C    6.0510000000       -1.6290000000       -2.2170000000     
    O    6.6790000000        0.4750000000       -1.2760000000     
    C    4.9850000000       -0.0430000000        1.6630000000     
    O    5.3140000000       -1.2300000000        1.7360000000     
    N    5.0880000000        0.8090000000        2.7450000000     
    C    5.7610000000        0.3800000000        3.9460000000     
    N   -4.8310000000       -1.4960000000        0.2370000000     
    C   -5.5430000000       -2.0430000000        1.2860000000     
    C   -6.1380000000       -3.3900000000        0.9680000000     
    O   -5.7010000000       -1.5100000000        2.3770000000     
    H   -6.2920000000        4.0340000000       -0.1200000000     
    H   -7.0740000000        2.7820000000       -1.1310000000     
    H   -7.3900000000        2.8350000000        0.6250000000     
    H   -4.8280000000        2.4530000000        0.7660000000     
    H   -4.4600000000        0.5710000000        2.3190000000     
    H   -3.1040000000        1.2350000000        1.4280000000     
    H   -3.0630000000       -0.4530000000        1.9500000000     
    H   -3.0910000000        1.1520000000       -1.0330000000     
    H   -3.8600000000       -0.1690000000       -1.8900000000     
    H   -1.5380000000       -0.4570000000        0.0910000000     
    H   -2.3320000000       -1.8040000000       -0.7270000000     
    H   -1.6920000000       -0.8360000000       -2.9460000000     
    H   -0.9440000000        0.5330000000       -2.1370000000     
    H   -0.0680000000       -2.4340000000       -1.9170000000     
    H    2.1350000000       -1.6460000000       -1.7080000000     
    H    2.7800000000        0.5980000000       -2.2510000000     
    H    1.1400000000        1.1370000000       -2.4080000000     
    H    2.0840000000        2.2050000000       -0.4620000000     
    H    0.8100000000        1.1220000000        0.0370000000     
    H    2.5530000000        0.9620000000        1.6210000000     
    H    2.4460000000       -0.5720000000        0.7990000000     
    H    5.7930000000        2.1270000000        0.2460000000     
    H    4.2120000000        2.6930000000        0.7440000000     
    H    4.4910000000        2.2610000000       -0.9480000000     
    H    4.2850000000       -1.3510000000       -0.5120000000     
    H    5.1030000000       -2.1200000000       -2.4580000000     
    H    6.6970000000       -2.3320000000       -1.6860000000     
    H    6.5250000000       -1.3280000000       -3.1560000000     
    H    5.0310000000        1.8050000000        2.5820000000     
    H    6.8370000000        0.3530000000        3.7560000000     
    H    5.5430000000        1.0970000000        4.7410000000     
    H    5.4170000000       -0.6160000000        4.2380000000     
    H   -5.1550000000       -1.8150000000       -0.6690000000     
    H   -7.1980000000       -3.2660000000        0.7330000000     
    H   -6.0260000000       -4.0450000000        1.8370000000     
    H   -5.6330000000       -3.8610000000        0.1200000000     


