--Link1--
%chk=conf18
#HF/6-31G* SCF=tight Test Pop=MK iop(6/33=2) iop(6/42=6) opt

remark line goes here

0   1
    C   -5.0990000000       -3.3810000000       -2.4010000000     
    N   -5.0190000000       -2.0640000000       -1.8180000000     
    C   -4.7530000000       -1.9170000000       -0.4700000000     
    O   -4.4160000000       -2.8720000000        0.2340000000     
    C   -4.7550000000       -0.4530000000        0.0770000000     
    C   -5.9640000000        0.3530000000       -0.4380000000     
    C   -3.4710000000        0.2760000000       -0.4180000000     
    C   -2.1380000000       -0.3810000000       -0.0180000000     
    C   -0.9170000000        0.3120000000       -0.6340000000     
    C   -0.7300000000        1.7240000000       -0.1560000000     
    C    0.0880000000        2.1450000000        0.8230000000     
    C    0.9640000000        1.2970000000        1.7040000000     
    C    2.4590000000        1.5600000000        1.4890000000     
    C    2.9450000000        1.1140000000        0.1010000000     
    C    4.4790000000        1.2280000000       -0.1520000000     
    C    4.9660000000        2.6680000000        0.0660000000     
    N    4.6980000000        0.8120000000       -1.5680000000     
    C    5.9520000000        0.7670000000       -2.1410000000     
    C    5.9370000000        0.6100000000       -3.6380000000     
    O    6.9960000000        0.8260000000       -1.5050000000     
    C    5.1940000000        0.2500000000        0.8340000000     
    O    5.6010000000        0.5950000000        1.9410000000     
    N    5.1530000000       -1.0780000000        0.4370000000     
    C    5.8620000000       -2.0760000000        1.1940000000     
    N   -4.7330000000       -0.5380000000        1.5550000000     
    C   -5.8480000000       -0.8470000000        2.3080000000     
    C   -5.5320000000       -1.1400000000        3.7520000000     
    O   -6.9940000000       -0.8970000000        1.8780000000     
    H   -4.2440000000       -3.9850000000       -2.0870000000     
    H   -6.0250000000       -3.8580000000       -2.0680000000     
    H   -5.1040000000       -3.2800000000       -3.4890000000     
    H   -5.5210000000       -1.3240000000       -2.2910000000     
    H   -6.8880000000       -0.2330000000       -0.4200000000     
    H   -6.1190000000        1.2590000000        0.1590000000     
    H   -5.8260000000        0.6710000000       -1.4780000000     
    H   -3.4970000000        0.3520000000       -1.5130000000     
    H   -3.4870000000        1.3030000000       -0.0310000000     
    H   -2.1260000000       -1.4260000000       -0.3490000000     
    H   -2.0300000000       -0.3900000000        1.0720000000     
    H   -0.0240000000       -0.2870000000       -0.4240000000     
    H   -1.0100000000        0.3260000000       -1.7270000000     
    H   -1.3170000000        2.4780000000       -0.6800000000     
    H    0.1110000000        3.2130000000        1.0400000000     
    H    0.7140000000        1.5350000000        2.7460000000     
    H    0.7550000000        0.2300000000        1.5830000000     
    H    2.6610000000        2.6270000000        1.6370000000     
    H    3.0070000000        1.0180000000        2.2670000000     
    H    2.6300000000        0.0740000000       -0.0630000000     
    H    2.4220000000        1.7090000000       -0.6610000000     
    H    6.0380000000        2.7670000000       -0.1350000000     
    H    4.4430000000        3.3640000000       -0.5990000000     
    H    4.8170000000        3.0030000000        1.0970000000     
    H    3.9410000000        1.0330000000       -2.2030000000     
    H    6.6620000000       -0.1580000000       -3.9240000000     
    H    6.2080000000        1.5630000000       -4.1000000000     
    H    4.9530000000        0.3020000000       -4.0030000000     
    H    5.0770000000       -1.2100000000       -0.5640000000     
    H    5.5770000000       -3.0620000000        0.8210000000     
    H    5.6100000000       -1.9910000000        2.2550000000     
    H    6.9360000000       -1.9230000000        1.0630000000     
    H   -3.8910000000       -0.9640000000        1.9220000000     
    H   -6.3040000000       -0.6950000000        4.3850000000     
    H   -5.5100000000       -2.2220000000        3.9010000000     
    H   -4.5670000000       -0.7150000000        4.0430000000     


