--Link1--
%chk=conf19
#HF/6-31G* SCF=tight Test Pop=MK iop(6/33=2) iop(6/42=6) opt

remark line goes here

0   1
    C   -5.8200000000        1.9170000000       -1.3450000000     
    N   -4.8660000000        1.0180000000       -0.7440000000     
    C   -4.9650000000       -0.3470000000       -0.9380000000     
    O   -5.8850000000       -0.8360000000       -1.5940000000     
    C   -3.8120000000       -1.2160000000       -0.3370000000     
    C   -3.2990000000       -0.6980000000        1.0160000000     
    C   -2.6480000000       -1.2850000000       -1.3730000000     
    C   -1.9330000000        0.0270000000       -1.7210000000     
    C   -0.7870000000       -0.2190000000       -2.7070000000     
    C   -0.1010000000        1.0680000000       -3.0690000000     
    C    1.0640000000        1.5330000000       -2.5890000000     
    C    1.9380000000        0.8930000000       -1.5450000000     
    C    2.1870000000        1.8550000000       -0.3820000000     
    C    2.8930000000        1.2380000000        0.8380000000     
    C    4.3290000000        0.6770000000        0.6400000000     
    C    5.2190000000        1.7380000000       -0.0470000000     
    N    4.3640000000       -0.5350000000       -0.2060000000     
    C    3.7510000000       -1.7430000000       -0.1010000000     
    C    2.8010000000       -2.0380000000        1.0250000000     
    O    3.9600000000       -2.5780000000       -0.9830000000     
    C    5.0130000000        0.3580000000        2.0180000000     
    O    5.5000000000       -0.7410000000        2.2820000000     
    N    5.0540000000        1.3990000000        2.9280000000     
    C    5.7360000000        1.2440000000        4.1900000000     
    N   -4.3130000000       -2.6100000000       -0.1910000000     
    C   -5.2660000000       -3.1570000000        0.6100000000     
    C   -6.0080000000       -2.3100000000        1.6030000000     
    O   -5.4820000000       -4.3660000000        0.5230000000     
    H   -6.8350000000        1.5290000000       -1.2280000000     
    H   -5.7340000000        2.8910000000       -0.8570000000     
    H   -5.5860000000        2.0140000000       -2.4090000000     
    H   -4.0050000000        1.4150000000       -0.3960000000     
    H   -2.6290000000       -1.4270000000        1.4870000000     
    H   -4.1140000000       -0.4950000000        1.7160000000     
    H   -2.7500000000        0.2430000000        0.9290000000     
    H   -3.0370000000       -1.7130000000       -2.3090000000     
    H   -1.8990000000       -2.0010000000       -1.0060000000     
    H   -1.5280000000        0.4940000000       -0.8180000000     
    H   -2.6400000000        0.7330000000       -2.1700000000     
    H   -1.1770000000       -0.6700000000       -3.6270000000     
    H   -0.0810000000       -0.9460000000       -2.2920000000     
    H   -0.6110000000        1.6660000000       -3.8240000000     
    H    1.4330000000        2.4760000000       -2.9940000000     
    H    2.8850000000        0.6290000000       -2.0270000000     
    H    1.4940000000       -0.0280000000       -1.1610000000     
    H    1.2200000000        2.2450000000       -0.0330000000     
    H    2.7480000000        2.7300000000       -0.7330000000     
    H    2.2360000000        0.4760000000        1.2680000000     
    H    2.9210000000        2.0300000000        1.5980000000     
    H    5.1600000000        2.7100000000        0.4540000000     
    H    4.9400000000        1.8830000000       -1.0960000000     
    H    6.2720000000        1.4290000000       -0.0380000000     
    H    5.0410000000       -0.5510000000       -0.9610000000     
    H    2.8340000000       -3.1110000000        1.2410000000     
    H    1.7860000000       -1.7700000000        0.7230000000     
    H    3.0640000000       -1.5160000000        1.9450000000     
    H    4.8580000000        2.3410000000        2.6180000000     
    H    5.4340000000        2.0600000000        4.8500000000     
    H    5.4800000000        0.2830000000        4.6440000000     
    H    6.8140000000        1.2890000000        4.0130000000     
    H   -3.9970000000       -3.2860000000       -0.8760000000     
    H   -6.9600000000       -2.7950000000        1.8410000000     
    H   -5.4210000000       -2.2240000000        2.5210000000     
    H   -6.2390000000       -1.3220000000        1.2050000000     


