--Link1--
%chk=conf2
#HF/6-31G* SCF=tight Test Pop=MK iop(6/33=2) iop(6/42=6) opt

remark line goes here

0   1
    C   -4.6920000000       -3.2100000000       -0.7180000000     
    N   -4.5270000000       -1.7780000000       -0.6900000000     
    C   -4.4770000000       -1.1050000000        0.5160000000     
    O   -4.3990000000       -1.7040000000        1.5920000000     
    C   -4.3640000000        0.4540000000        0.4330000000     
    C   -5.2740000000        1.0570000000       -0.6500000000     
    C   -2.8760000000        0.7660000000        0.1170000000     
    C   -2.5420000000        2.2650000000        0.0450000000     
    C   -1.0440000000        2.5280000000       -0.1380000000     
    C   -0.5290000000        2.0730000000       -1.4740000000     
    C    0.2960000000        1.0440000000       -1.7250000000     
    C    0.8650000000        0.0670000000       -0.7360000000     
    C    2.3830000000        0.2330000000       -0.5950000000     
    C    2.9500000000       -0.7500000000        0.4330000000     
    C    4.4860000000       -0.9890000000        0.4650000000     
    C    4.7080000000       -2.1410000000        1.4810000000     
    N    5.2540000000        0.1680000000        0.9730000000     
    C    5.4090000000        1.3450000000        0.2710000000     
    C    6.3640000000        2.3090000000        0.9260000000     
    O    4.8690000000        1.6040000000       -0.7970000000     
    C    5.1470000000       -1.5020000000       -0.8580000000     
    O    6.3390000000       -1.3020000000       -1.1040000000     
    N    4.3740000000       -2.3310000000       -1.6500000000     
    C    4.8910000000       -2.8090000000       -2.9080000000     
    N   -4.6760000000        0.9560000000        1.7900000000     
    C   -5.9620000000        1.0420000000        2.2810000000     
    C   -6.0220000000        1.3210000000        3.7600000000     
    O   -6.9790000000        0.9030000000        1.6110000000     
    H   -4.0050000000       -3.6830000000       -0.0110000000     
    H   -5.7220000000       -3.4520000000       -0.4430000000     
    H   -4.4850000000       -3.5640000000       -1.7310000000     
    H   -4.8090000000       -1.2670000000       -1.5160000000     
    H   -5.4330000000        2.1290000000       -0.4890000000     
    H   -6.2550000000        0.5720000000       -0.6790000000     
    H   -4.8410000000        0.9350000000       -1.6490000000     
    H   -2.2400000000        0.3010000000        0.8830000000     
    H   -2.6030000000        0.2890000000       -0.8320000000     
    H   -3.0970000000        2.7370000000       -0.7740000000     
    H   -2.8620000000        2.7580000000        0.9710000000     
    H   -0.8670000000        3.6090000000       -0.0660000000     
    H   -0.4840000000        2.0820000000        0.6900000000     
    H   -0.8510000000        2.6780000000       -2.3220000000     
    H    0.5920000000        0.8780000000       -2.7610000000     
    H    0.3890000000        0.1590000000        0.2450000000     
    H    0.6360000000       -0.9450000000       -1.0920000000     
    H    2.8550000000        0.0870000000       -1.5730000000     
    H    2.5820000000        1.2580000000       -0.2680000000     
    H    2.6280000000       -0.4100000000        1.4280000000     
    H    2.4510000000       -1.7170000000        0.2820000000     
    H    4.1840000000       -3.0550000000        1.1770000000     
    H    4.3560000000       -1.8610000000        2.4800000000     
    H    5.7720000000       -2.3940000000        1.5690000000     
    H    6.0670000000       -0.0750000000        1.5250000000     
    H    7.3410000000        2.2300000000        0.4420000000     
    H    6.4720000000        2.0990000000        1.9940000000     
    H    5.9780000000        3.3260000000        0.8160000000     
    H    3.3690000000       -2.2720000000       -1.5660000000     
    H    4.9210000000       -1.9770000000       -3.6160000000     
    H    4.2250000000       -3.5910000000       -3.2820000000     
    H    5.8990000000       -3.2110000000       -2.7740000000     
    H   -4.0040000000        0.6570000000        2.4890000000     
    H   -6.8230000000        2.0390000000        3.9580000000     
    H   -5.0840000000        1.7490000000        4.1250000000     
    H   -6.2230000000        0.3880000000        4.2930000000     


