--Link1--
%chk=conf20
#HF/6-31G* SCF=tight Test Pop=MK iop(6/33=2) iop(6/42=6) opt

remark line goes here

0   1
    C    6.8170000000       -0.0650000000       -1.8200000000     
    N    5.6730000000       -0.4450000000       -1.0290000000     
    C    4.7260000000        0.4860000000       -0.6560000000     
    O    4.7690000000        1.6550000000       -1.0510000000     
    C    3.5630000000       -0.0230000000        0.2690000000     
    C    4.1810000000       -0.5840000000        1.5570000000     
    C    2.7640000000       -1.0780000000       -0.5390000000     
    C    1.5540000000       -1.7060000000        0.1630000000     
    C    0.9450000000       -2.8800000000       -0.6180000000     
    C    0.3320000000       -2.4660000000       -1.9270000000     
    C   -0.9670000000       -2.4800000000       -2.2680000000     
    C   -2.1380000000       -2.9240000000       -1.4370000000     
    C   -3.0940000000       -1.7760000000       -1.0960000000     
    C   -2.4990000000       -0.7870000000       -0.0800000000     
    C   -3.4380000000        0.3960000000        0.2830000000     
    C   -4.7600000000       -0.1290000000        0.8700000000     
    N   -3.6280000000        1.2250000000       -0.9290000000     
    C   -4.6070000000        2.1890000000       -1.0450000000     
    C   -4.4200000000        3.0910000000       -2.2370000000     
    O   -5.5490000000        2.3320000000       -0.2750000000     
    C   -2.6690000000        1.2920000000        1.3100000000     
    O   -2.0800000000        2.3190000000        0.9630000000     
    N   -2.6080000000        0.8070000000        2.6010000000     
    C   -1.8510000000        1.4760000000        3.6290000000     
    N    2.7740000000        1.1980000000        0.5190000000     
    C    1.8060000000        1.3860000000        1.4710000000     
    C    1.2170000000        2.7710000000        1.4410000000     
    O    1.4410000000        0.5350000000        2.2740000000     
    H    7.2690000000       -0.9690000000       -2.2340000000     
    H    7.5350000000        0.4470000000       -1.1740000000     
    H    6.5130000000        0.6050000000       -2.6300000000     
    H    5.6960000000       -1.3450000000       -0.5700000000     
    H    4.7850000000       -1.4770000000        1.3640000000     
    H    4.8360000000        0.1580000000        2.0290000000     
    H    3.4290000000       -0.8680000000        2.2980000000     
    H    2.4300000000       -0.6140000000       -1.4760000000     
    H    3.4410000000       -1.8920000000       -0.8320000000     
    H    0.7780000000       -0.9500000000        0.3210000000     
    H    1.8520000000       -2.0820000000        1.1480000000     
    H    1.7190000000       -3.6310000000       -0.8190000000     
    H    0.2110000000       -3.3720000000        0.0260000000     
    H    1.0380000000       -2.1260000000       -2.6840000000     
    H   -1.2230000000       -2.1430000000       -3.2730000000     
    H   -1.8280000000       -3.4290000000       -0.5170000000     
    H   -2.6880000000       -3.6730000000       -2.0200000000     
    H   -3.3830000000       -1.2500000000       -2.0140000000     
    H   -4.0080000000       -2.2180000000       -0.6820000000     
    H   -2.2290000000       -1.3400000000        0.8300000000     
    H   -1.5580000000       -0.3830000000       -0.4750000000     
    H   -5.2800000000        0.6390000000        1.4530000000     
    H   -4.5900000000       -0.9690000000        1.5520000000     
    H   -5.4420000000       -0.4730000000        0.0840000000     
    H   -2.7510000000        1.4960000000       -1.3600000000     
    H   -3.7780000000        2.6280000000       -2.9920000000     
    H   -5.3940000000        3.2880000000       -2.6940000000     
    H   -3.9700000000        4.0310000000       -1.9080000000     
    H   -2.9320000000       -0.1290000000        2.7960000000     
    H   -1.8080000000        2.5530000000        3.4490000000     
    H   -0.8400000000        1.0620000000        3.6390000000     
    H   -2.3310000000        1.2800000000        4.5910000000     
    H    3.0330000000        1.9950000000       -0.0620000000     
    H    2.0150000000        3.5190000000        1.4770000000     
    H    0.6300000000        2.9010000000        0.5280000000     
    H    0.5710000000        2.9160000000        2.3100000000     


