--Link1--
%chk=conf21
#HF/6-31G* SCF=tight Test Pop=MK iop(6/33=2) iop(6/42=6) opt

remark line goes here

0   1
    C    6.8200000000        2.1870000000       -1.7480000000     
    N    5.6150000000        1.4550000000       -1.4460000000     
    C    5.6730000000        0.2860000000       -0.7110000000     
    O    6.7120000000       -0.0850000000       -0.1590000000     
    C    4.3100000000       -0.4580000000       -0.4930000000     
    C    3.4990000000       -0.5430000000       -1.7930000000     
    C    3.5500000000        0.3470000000        0.6000000000     
    C    2.2770000000       -0.2900000000        1.1830000000     
    C    0.9880000000       -0.1400000000        0.3690000000     
    C    0.6110000000        1.2880000000        0.0940000000     
    C   -0.2620000000        2.0400000000        0.7840000000     
    C   -1.0190000000        1.6510000000        2.0220000000     
    C   -2.5360000000        1.5970000000        1.8030000000     
    C   -2.9600000000        0.4600000000        0.8600000000     
    C   -4.4780000000        0.3740000000        0.5600000000     
    C   -5.3440000000        0.5000000000        1.8250000000     
    N   -4.7690000000       -0.8890000000       -0.1710000000     
    C   -4.6860000000       -2.1400000000        0.3970000000     
    C   -4.8470000000       -3.2660000000       -0.5900000000     
    O   -4.4900000000       -2.3490000000        1.5880000000     
    C   -4.9140000000        1.5020000000       -0.4290000000     
    O   -4.2250000000        2.4790000000       -0.7060000000     
    N   -6.1950000000        1.3360000000       -0.9300000000     
    C   -6.7600000000        2.2520000000       -1.8850000000     
    N    4.6650000000       -1.7870000000        0.0540000000     
    C    5.1320000000       -2.8250000000       -0.7260000000     
    C    5.6880000000       -3.9740000000        0.0760000000     
    O    5.1160000000       -2.8450000000       -1.9510000000     
    H    6.5420000000        3.1740000000       -2.1230000000     
    H    7.4350000000        2.2890000000       -0.8500000000     
    H    7.3800000000        1.6420000000       -2.5130000000     
    H    4.8160000000        1.6130000000       -2.0450000000     
    H    4.1430000000       -0.7140000000       -2.6630000000     
    H    2.9590000000        0.3880000000       -1.9930000000     
    H    2.7700000000       -1.3590000000       -1.7630000000     
    H    4.2390000000        0.4870000000        1.4470000000     
    H    3.3380000000        1.3620000000        0.2420000000     
    H    2.4460000000       -1.3540000000        1.3840000000     
    H    2.1020000000        0.1700000000        2.1660000000     
    H    1.0640000000       -0.6690000000       -0.5840000000     
    H    0.1790000000       -0.6500000000        0.9040000000     
    H    1.0780000000        1.7390000000       -0.7800000000     
    H   -0.4460000000        3.0560000000        0.4330000000     
    H   -0.6720000000        0.6960000000        2.4320000000     
    H   -0.8050000000        2.4020000000        2.7920000000     
    H   -3.0060000000        1.4530000000        2.7830000000     
    H   -2.8840000000        2.5650000000        1.4260000000     
    H   -2.4220000000        0.5470000000       -0.0920000000     
    H   -2.6200000000       -0.4830000000        1.3080000000     
    H   -6.3840000000        0.2130000000        1.6320000000     
    H   -4.9760000000       -0.1360000000        2.6360000000     
    H   -5.3610000000        1.5320000000        2.1940000000     
    H   -4.6450000000       -0.8440000000       -1.1760000000     
    H   -3.8620000000       -3.6710000000       -0.8360000000     
    H   -5.3370000000       -2.9280000000       -1.5070000000     
    H   -5.4670000000       -4.0480000000       -0.1420000000     
    H   -6.6640000000        0.4570000000       -0.7430000000     
    H   -6.3640000000        2.0120000000       -2.8750000000     
    H   -6.4970000000        3.2820000000       -1.6280000000     
    H   -7.8460000000        2.1320000000       -1.8820000000     
    H    5.1240000000       -1.7330000000        0.9570000000     
    H    6.7790000000       -3.9090000000        0.0850000000     
    H    5.3780000000       -4.9160000000       -0.3850000000     
    H    5.3170000000       -3.9600000000        1.1050000000     


