--Link1--
%chk=conf22
#HF/6-31G* SCF=tight Test Pop=MK iop(6/33=2) iop(6/42=6) opt

remark line goes here

0   1
    C   -6.9890000000       -2.8610000000        2.5500000000     
    N   -6.2380000000       -2.0130000000        1.6610000000     
    C   -4.9030000000       -1.7190000000        1.8870000000     
    O   -4.2700000000       -2.2240000000        2.8080000000     
    C   -4.2820000000       -0.7580000000        0.8210000000     
    C   -4.2190000000       -1.5250000000       -0.5070000000     
    C   -2.9100000000       -0.2240000000        1.3080000000     
    C   -1.7150000000       -1.1950000000        1.2870000000     
    C   -0.9430000000       -1.3140000000       -0.0330000000     
    C   -0.4310000000       -0.0040000000       -0.5620000000     
    C    0.8220000000        0.4700000000       -0.4730000000     
    C    1.9800000000       -0.1770000000        0.2330000000     
    C    2.8880000000       -0.9810000000       -0.7000000000     
    C    3.5990000000       -0.2060000000       -1.8250000000     
    C    4.7680000000        0.7270000000       -1.4150000000     
    C    5.5450000000        1.1730000000       -2.6690000000     
    N    5.6880000000        0.0920000000       -0.4540000000     
    C    6.4040000000       -1.0560000000       -0.6750000000     
    C    7.2730000000       -1.4700000000        0.4810000000     
    O    6.3420000000       -1.7170000000       -1.7060000000     
    C    4.2650000000        2.0210000000       -0.7010000000     
    O    4.6140000000        2.2930000000        0.4510000000     
    N    3.4320000000        2.8440000000       -1.4270000000     
    C    2.8680000000        4.0350000000       -0.8430000000     
    N   -5.2490000000        0.3710000000        0.7360000000     
    C   -5.1590000000        1.3850000000       -0.1920000000     
    C   -6.1460000000        2.5010000000        0.0320000000     
    O   -4.3550000000        1.4110000000       -1.1160000000     
    H   -7.8770000000       -3.2180000000        2.0230000000     
    H   -7.2880000000       -2.2720000000        3.4220000000     
    H   -6.3800000000       -3.7080000000        2.8750000000     
    H   -6.7210000000       -1.4970000000        0.9350000000     
    H   -3.6750000000       -0.9700000000       -1.2770000000     
    H   -3.7350000000       -2.5000000000       -0.3820000000     
    H   -5.2220000000       -1.7200000000       -0.9060000000     
    H   -2.6450000000        0.6880000000        0.7620000000     
    H   -3.0360000000        0.1090000000        2.3480000000     
    H   -2.0310000000       -2.1960000000        1.5990000000     
    H   -1.0050000000       -0.8540000000        2.0530000000     
    H   -1.5610000000       -1.7770000000       -0.8070000000     
    H   -0.1130000000       -2.0150000000        0.1170000000     
    H   -1.1670000000        0.6010000000       -1.0960000000     
    H    1.0230000000        1.4370000000       -0.9280000000     
    H    2.5480000000        0.5920000000        0.7640000000     
    H    1.6120000000       -0.8470000000        1.0200000000     
    H    2.2800000000       -1.7640000000       -1.1740000000     
    H    3.6250000000       -1.5170000000       -0.0920000000     
    H    2.8560000000        0.3450000000       -2.4130000000     
    H    3.9950000000       -0.9650000000       -2.5130000000     
    H    4.8950000000        1.6790000000       -3.3920000000     
    H    6.0060000000        0.3270000000       -3.1890000000     
    H    6.3480000000        1.8710000000       -2.4050000000     
    H    5.7910000000        0.5850000000        0.4300000000     
    H    7.3890000000       -0.6630000000        1.2110000000     
    H    8.2650000000       -1.7360000000        0.1060000000     
    H    6.8220000000       -2.3340000000        0.9760000000     
    H    3.0530000000        2.5200000000       -2.3080000000     
    H    2.0680000000        3.7460000000       -0.1570000000     
    H    2.4640000000        4.6580000000       -1.6440000000     
    H    3.6370000000        4.5860000000       -0.2950000000     
    H   -5.7320000000        0.5940000000        1.5990000000     
    H   -6.9800000000        2.1770000000        0.6610000000     
    H   -6.5510000000        2.8190000000       -0.9320000000     
    H   -5.6360000000        3.3390000000        0.5130000000     


