--Link1--
%chk=conf23
#HF/6-31G* SCF=tight Test Pop=MK iop(6/33=2) iop(6/42=6) opt

remark line goes here

0   1
    C    5.6020000000       -3.0210000000       -0.4960000000     
    N    4.9050000000       -1.8370000000       -0.0570000000     
    C    4.8850000000       -0.7120000000       -0.8560000000     
    O    5.3210000000       -0.7220000000       -2.0100000000     
    C    4.1560000000        0.5430000000       -0.2810000000     
    C    4.1650000000        0.6600000000        1.2500000000     
    C    2.6940000000        0.5810000000       -0.8260000000     
    C    1.8540000000       -0.7090000000       -0.8400000000     
    C    1.3850000000       -1.2850000000        0.4970000000     
    C    0.5460000000       -0.3270000000        1.2970000000     
    C   -0.7630000000       -0.4380000000        1.5760000000     
    C   -1.6860000000       -1.5550000000        1.1720000000     
    C   -2.2960000000       -1.3860000000       -0.2210000000     
    C   -3.0410000000       -0.0760000000       -0.5130000000     
    C   -4.4230000000        0.1930000000        0.1360000000     
    C   -4.3870000000        0.4600000000        1.6460000000     
    N   -5.4230000000       -0.8330000000       -0.2230000000     
    C   -5.5660000000       -2.0810000000        0.3220000000     
    C   -6.7130000000       -2.8690000000       -0.2540000000     
    O   -4.8580000000       -2.5360000000        1.2130000000     
    C   -4.9950000000        1.4890000000       -0.5500000000     
    O   -6.0240000000        1.4560000000       -1.2300000000     
    N   -4.2750000000        2.6510000000       -0.3680000000     
    C   -4.7440000000        3.9080000000       -0.8960000000     
    N    4.8650000000        1.7010000000       -0.8990000000     
    C    6.1270000000        2.1090000000       -0.5160000000     
    C    6.7310000000        3.1360000000       -1.4380000000     
    O    6.7330000000        1.6870000000        0.4610000000     
    H    5.3360000000       -3.8470000000        0.1670000000     
    H    6.6780000000       -2.8360000000       -0.4470000000     
    H    5.3200000000       -3.2640000000       -1.5250000000     
    H    4.8260000000       -1.7080000000        0.9430000000     
    H    5.1530000000        0.4650000000        1.6780000000     
    H    3.4970000000       -0.0530000000        1.7320000000     
    H    3.8560000000        1.6630000000        1.5680000000     
    H    2.1390000000        1.3850000000       -0.3250000000     
    H    2.7370000000        0.8960000000       -1.8800000000     
    H    0.9590000000       -0.5010000000       -1.4430000000     
    H    2.3900000000       -1.4910000000       -1.3900000000     
    H    2.2360000000       -1.6110000000        1.1010000000     
    H    0.8250000000       -2.2010000000        0.2820000000     
    H    1.0670000000        0.5430000000        1.6960000000     
    H   -1.2200000000        0.3460000000        2.1790000000     
    H   -1.1520000000       -2.5120000000        1.2090000000     
    H   -2.4670000000       -1.6510000000        1.9310000000     
    H   -1.4760000000       -1.4540000000       -0.9490000000     
    H   -2.9370000000       -2.2440000000       -0.4460000000     
    H   -2.3650000000        0.7620000000       -0.3010000000     
    H   -3.1830000000       -0.0490000000       -1.6040000000     
    H   -4.1920000000       -0.4350000000        2.2380000000     
    H   -3.6210000000        1.1970000000        1.9090000000     
    H   -5.3500000000        0.8570000000        1.9920000000     
    H   -6.1230000000       -0.5170000000       -0.8940000000     
    H   -7.5660000000       -2.8080000000        0.4260000000     
    H   -6.4080000000       -3.9120000000       -0.3700000000     
    H   -7.0070000000       -2.4900000000       -1.2370000000     
    H   -3.5200000000        2.6720000000        0.3050000000     
    H   -3.9110000000        4.6150000000       -0.9020000000     
    H   -5.5430000000        4.2810000000       -0.2500000000     
    H   -5.1270000000        3.7750000000       -1.9110000000     
    H    4.7250000000        1.7650000000       -1.9020000000     
    H    7.2530000000        3.8900000000       -0.8430000000     
    H    5.9620000000        3.6430000000       -2.0290000000     
    H    7.4360000000        2.6430000000       -2.1120000000     


