--Link1--
%chk=conf3
#HF/6-31G* SCF=tight Test Pop=MK iop(6/33=2) iop(6/42=6) opt

remark line goes here

0   1
    C   -7.1570000000       -1.3540000000        1.8880000000     
    N   -6.0430000000       -1.0360000000        1.0300000000     
    C   -5.9840000000        0.1890000000        0.3920000000     
    O   -6.7760000000        1.0980000000        0.6560000000     
    C   -4.7640000000        0.4140000000       -0.5630000000     
    C   -4.4720000000       -0.8150000000       -1.4330000000     
    C   -3.5510000000        0.7470000000        0.3530000000     
    C   -2.2520000000        1.1590000000       -0.3600000000     
    C   -1.3020000000       -0.0110000000       -0.6300000000     
    C   -0.0250000000        0.4660000000       -1.2620000000     
    C    1.1910000000        0.5200000000       -0.6950000000     
    C    1.5440000000        0.1700000000        0.7230000000     
    C    2.1300000000       -1.2360000000        0.8720000000     
    C    3.4460000000       -1.5240000000        0.1260000000     
    C    4.7090000000       -0.7380000000        0.5820000000     
    C    4.8840000000       -0.8410000000        2.1060000000     
    N    4.6150000000        0.6560000000        0.0980000000     
    C    5.4280000000        1.6740000000        0.5510000000     
    C    5.3320000000        2.9290000000       -0.2780000000     
    O    6.1690000000        1.6010000000        1.5240000000     
    C    5.9180000000       -1.3570000000       -0.1990000000     
    O    6.3180000000       -0.8690000000       -1.2600000000     
    N    6.4190000000       -2.5480000000        0.2890000000     
    C    7.5640000000       -3.1650000000       -0.3350000000     
    N   -5.0960000000        1.6180000000       -1.3600000000     
    C   -5.9650000000        1.5970000000       -2.4310000000     
    C   -6.3590000000        2.9700000000       -2.9100000000     
    O   -6.3990000000        0.5810000000       -2.9610000000     
    H   -6.9130000000       -2.2560000000        2.4540000000     
    H   -7.3540000000       -0.5260000000        2.5740000000     
    H   -8.0400000000       -1.5320000000        1.2680000000     
    H   -5.5420000000       -1.8140000000        0.6230000000     
    H   -3.9440000000       -1.5910000000       -0.8670000000     
    H   -5.3910000000       -1.2830000000       -1.8020000000     
    H   -3.8580000000       -0.5560000000       -2.3020000000     
    H   -3.3510000000       -0.0880000000        1.0380000000     
    H   -3.8410000000        1.5880000000        1.0010000000     
    H   -1.7300000000        1.8730000000        0.2920000000     
    H   -2.4680000000        1.6980000000       -1.2890000000     
    H   -1.1070000000       -0.5560000000        0.3000000000     
    H   -1.7580000000       -0.7330000000       -1.3140000000     
    H   -0.1140000000        0.7810000000       -2.3030000000     
    H    2.0140000000        0.8820000000       -1.3090000000     
    H    0.6570000000        0.2450000000        1.3640000000     
    H    2.2340000000        0.9230000000        1.1160000000     
    H    1.3840000000       -1.9610000000        0.5170000000     
    H    2.2590000000       -1.4500000000        1.9390000000     
    H    3.2910000000       -1.3820000000       -0.9520000000     
    H    3.6420000000       -2.5980000000        0.2460000000     
    H    5.9130000000       -0.6270000000        2.4160000000     
    H    4.6610000000       -1.8510000000        2.4660000000     
    H    4.2220000000       -0.1470000000        2.6340000000     
    H    4.4460000000        0.7090000000       -0.9010000000     
    H    6.1840000000        2.9730000000       -0.9610000000     
    H    4.4040000000        2.9550000000       -0.8560000000     
    H    5.3440000000        3.7990000000        0.3850000000     
    H    6.2380000000       -2.7890000000        1.2530000000     
    H    7.6610000000       -4.1840000000        0.0480000000     
    H    7.4380000000       -3.1850000000       -1.4200000000     
    H    8.4570000000       -2.5860000000       -0.0820000000     
    H   -5.1840000000        2.4560000000       -0.7950000000     
    H   -5.6420000000        3.7280000000       -2.5830000000     
    H   -6.3830000000        2.9750000000       -4.0040000000     
    H   -7.3490000000        3.2160000000       -2.5180000000     


