--Link1--
%chk=conf4
#HF/6-31G* SCF=tight Test Pop=MK iop(6/33=2) iop(6/42=6) opt

remark line goes here

0   1
    C    7.2620000000        2.0410000000        2.0610000000     
    N    6.1730000000        1.8070000000        1.1450000000     
    C    5.7930000000        0.5270000000        0.8020000000     
    O    6.3930000000       -0.4670000000        1.2200000000     
    C    4.5350000000        0.3910000000       -0.1280000000     
    C    4.7910000000        1.2040000000       -1.4060000000     
    C    3.3100000000        0.8920000000        0.6800000000     
    C    1.9480000000        0.7910000000       -0.0170000000     
    C    0.8210000000        1.4810000000        0.7580000000     
    C    0.5550000000        0.8690000000        2.1050000000     
    C   -0.3470000000       -0.0860000000        2.3850000000     
    C   -1.2370000000       -0.7970000000        1.4050000000     
    C   -2.6970000000       -0.3650000000        1.5610000000     
    C   -3.6380000000       -1.0790000000        0.5740000000     
    C   -4.0250000000       -0.2750000000       -0.6980000000     
    C   -2.8080000000       -0.1450000000       -1.6310000000     
    N   -4.5260000000        1.0900000000       -0.4180000000     
    C   -5.4900000000        1.3580000000        0.5320000000     
    C   -6.0340000000        2.7610000000        0.4540000000     
    O   -5.8940000000        0.5580000000        1.3670000000     
    C   -5.1500000000       -0.9720000000       -1.5400000000     
    O   -6.0280000000       -0.3200000000       -2.1110000000     
    N   -5.0280000000       -2.3360000000       -1.7240000000     
    C   -6.0400000000       -3.0660000000       -2.4470000000     
    N    4.4710000000       -1.0600000000       -0.3950000000     
    C    3.7330000000       -1.6960000000       -1.3570000000     
    C    3.9080000000       -3.1920000000       -1.3650000000     
    O    3.0080000000       -1.1320000000       -2.1690000000     
    H    6.9070000000        1.8610000000        3.0790000000     
    H    8.0950000000        1.3690000000        1.8400000000     
    H    7.5850000000        3.0800000000        1.9600000000     
    H    5.5710000000        2.5870000000        0.9170000000     
    H    3.9910000000        1.0970000000       -2.1420000000     
    H    5.7220000000        0.8840000000       -1.8890000000     
    H    4.8860000000        2.2740000000       -1.1930000000     
    H    3.2650000000        0.3340000000        1.6250000000     
    H    3.4670000000        1.9420000000        0.9590000000     
    H    2.0020000000        1.2540000000       -1.0080000000     
    H    1.6800000000       -0.2610000000       -0.1600000000     
    H   -0.0900000000        1.4700000000        0.1490000000     
    H    1.0630000000        2.5420000000        0.9010000000     
    H    1.1430000000        1.2700000000        2.9290000000     
    H   -0.4420000000       -0.4090000000        3.4210000000     
    H   -1.1500000000       -1.8750000000        1.5910000000     
    H   -0.8940000000       -0.6420000000        0.3780000000     
    H   -2.7790000000        0.7240000000        1.4760000000     
    H   -3.0220000000       -0.6170000000        2.5790000000     
    H   -3.1830000000       -2.0370000000        0.2900000000     
    H   -4.5500000000       -1.3640000000        1.1110000000     
    H   -2.0520000000        0.5260000000       -1.2120000000     
    H   -2.3430000000       -1.1170000000       -1.8260000000     
    H   -3.0980000000        0.2750000000       -2.6030000000     
    H   -4.6290000000        1.6550000000       -1.2540000000     
    H   -6.9980000000        2.7440000000       -0.0600000000     
    H   -6.1620000000        3.1530000000        1.4670000000     
    H   -5.3500000000        3.4260000000       -0.0830000000     
    H   -4.4500000000       -2.8650000000       -1.0880000000     
    H   -6.2920000000       -2.5460000000       -3.3750000000     
    H   -6.9320000000       -3.1450000000       -1.8200000000     
    H   -5.6550000000       -4.0630000000       -2.6720000000     
    H    5.1010000000       -1.6180000000        0.1800000000     
    H    4.6150000000       -3.4660000000       -2.1520000000     
    H    2.9410000000       -3.6650000000       -1.5580000000     
    H    4.2790000000       -3.5590000000       -0.4040000000     


