--Link1--
%chk=conf5
#HF/6-31G* SCF=tight Test Pop=MK iop(6/33=2) iop(6/42=6) opt

remark line goes here

0   1
    C   -6.4990000000        1.8340000000        3.2120000000     
    N   -5.4050000000        1.2270000000        2.4970000000     
    C   -5.6270000000        0.4510000000        1.3770000000     
    O   -6.7600000000        0.2720000000        0.9230000000     
    C   -4.3470000000       -0.0720000000        0.6400000000     
    C   -3.3380000000       -0.6480000000        1.6490000000     
    C   -3.7500000000        1.1520000000       -0.1140000000     
    C   -2.8260000000        0.8810000000       -1.3120000000     
    C   -1.5610000000        0.0900000000       -0.9900000000     
    C   -0.6030000000        0.1070000000       -2.1480000000     
    C    0.5890000000        0.7230000000       -2.1980000000     
    C    1.2070000000        1.5800000000       -1.1280000000     
    C    2.1550000000        0.8100000000       -0.2020000000     
    C    3.3800000000        0.2400000000       -0.9350000000     
    C    4.4350000000       -0.4290000000       -0.0150000000     
    C    3.8590000000       -1.7360000000        0.5640000000     
    N    4.8690000000        0.4180000000        1.1200000000     
    C    5.2670000000        1.7300000000        0.9610000000     
    C    5.9350000000        2.3070000000        2.1820000000     
    O    5.1110000000        2.3910000000       -0.0600000000     
    C    5.7480000000       -0.8260000000       -0.7740000000     
    O    6.8550000000       -0.7430000000       -0.2350000000     
    N    5.5910000000       -1.4030000000       -2.0190000000     
    C    6.7460000000       -1.7570000000       -2.8070000000     
    N   -4.8320000000       -1.0590000000       -0.3470000000     
    C   -5.1520000000       -2.3620000000       -0.0240000000     
    C   -5.8950000000       -3.0850000000       -1.1170000000     
    O   -4.8760000000       -2.9110000000        1.0360000000     
    H   -6.8300000000        2.7170000000        2.6600000000     
    H   -6.1460000000        2.1280000000        4.2040000000     
    H   -7.3290000000        1.1290000000        3.3060000000     
    H   -4.4620000000        1.4630000000        2.7720000000     
    H   -2.6350000000       -1.3440000000        1.1840000000     
    H   -2.7510000000        0.1420000000        2.1300000000     
    H   -3.8420000000       -1.1880000000        2.4590000000     
    H   -4.5800000000        1.7610000000       -0.5020000000     
    H   -3.2270000000        1.8060000000        0.5970000000     
    H   -3.3880000000        0.3710000000       -2.1050000000     
    H   -2.5430000000        1.8570000000       -1.7280000000     
    H   -1.0950000000        0.4780000000       -0.0790000000     
    H   -1.8140000000       -0.9580000000       -0.7970000000     
    H   -0.9180000000       -0.4630000000       -3.0220000000     
    H    1.1740000000        0.6260000000       -3.1120000000     
    H    1.7480000000        2.4030000000       -1.6110000000     
    H    0.4270000000        2.0580000000       -0.5240000000     
    H    1.6020000000        0.0010000000        0.2890000000     
    H    2.4740000000        1.4970000000        0.5900000000     
    H    3.8460000000        1.0260000000       -1.5400000000     
    H    3.0200000000       -0.5010000000       -1.6610000000     
    H    4.6220000000       -2.2910000000        1.1230000000     
    H    3.0350000000       -1.5410000000        1.2590000000     
    H    3.4920000000       -2.3990000000       -0.2270000000     
    H    5.4330000000       -0.0840000000        1.7960000000     
    H    7.0180000000        2.3030000000        2.0330000000     
    H    5.6910000000        1.7320000000        3.0800000000     
    H    5.5860000000        3.3330000000        2.3300000000     
    H    4.7250000000       -1.2570000000       -2.5180000000     
    H    6.4200000000       -2.3880000000       -3.6370000000     
    H    7.4720000000       -2.2960000000       -2.1930000000     
    H    7.2020000000       -0.8410000000       -3.1930000000     
    H   -5.4700000000       -0.6550000000       -1.0250000000     
    H   -6.9620000000       -3.0930000000       -0.8800000000     
    H   -5.5240000000       -4.1110000000       -1.1860000000     
    H   -5.7450000000       -2.6040000000       -2.0880000000     


