--Link1--
%chk=conf6
#HF/6-31G* SCF=tight Test Pop=MK iop(6/33=2) iop(6/42=6) opt

remark line goes here

0   1
    C   -4.0360000000        2.8850000000        3.3310000000     
    N   -3.8360000000        1.7080000000        2.5250000000     
    C   -3.9080000000        1.7660000000        1.1480000000     
    O   -4.1450000000        2.8200000000        0.5520000000     
    C   -3.5490000000        0.4470000000        0.3830000000     
    C   -4.2100000000       -0.7780000000        1.0330000000     
    C   -2.0000000000        0.3160000000        0.4250000000     
    C   -1.3920000000       -0.9810000000       -0.1330000000     
    C   -1.5040000000       -1.2140000000       -1.6440000000     
    C   -0.8600000000       -0.1310000000       -2.4630000000     
    C    0.3210000000       -0.1870000000       -3.0990000000     
    C    1.2920000000       -1.3340000000       -3.1410000000     
    C    1.9860000000       -1.6740000000       -1.8150000000     
    C    2.5930000000       -0.4540000000       -1.1060000000     
    C    3.4630000000       -0.7740000000        0.1360000000     
    C    2.8600000000       -1.8680000000        1.0350000000     
    N    3.7120000000        0.4760000000        0.9040000000     
    C    2.7400000000        1.1450000000        1.6150000000     
    C    3.1910000000        2.4800000000        2.1460000000     
    O    1.6060000000        0.7250000000        1.8080000000     
    C    4.8800000000       -1.2590000000       -0.3050000000     
    O    5.1520000000       -1.6350000000       -1.4410000000     
    N    5.8010000000       -1.3000000000        0.7280000000     
    C    7.1690000000       -1.6950000000        0.5110000000     
    N   -3.9770000000        0.6770000000       -1.0140000000     
    C   -5.2770000000        0.5360000000       -1.4510000000     
    C   -5.5050000000        1.0960000000       -2.8310000000     
    O   -6.1840000000        0.0150000000       -0.8120000000     
    H   -4.2460000000        2.5720000000        4.3570000000     
    H   -3.1230000000        3.4850000000        3.3070000000     
    H   -4.8710000000        3.4740000000        2.9430000000     
    H   -3.4420000000        0.8890000000        2.9690000000     
    H   -3.6770000000       -1.0880000000        1.9400000000     
    H   -4.2280000000       -1.6350000000        0.3510000000     
    H   -5.2400000000       -0.5710000000        1.3420000000     
    H   -1.6720000000        0.3860000000        1.4710000000     
    H   -1.5400000000        1.1810000000       -0.0720000000     
    H   -0.3290000000       -0.9790000000        0.1370000000     
    H   -1.8200000000       -1.8460000000        0.3870000000     
    H   -2.5530000000       -1.3100000000       -1.9420000000     
    H   -1.0520000000       -2.1850000000       -1.8770000000     
    H   -1.4290000000        0.7920000000       -2.5490000000     
    H    0.6330000000        0.6970000000       -3.6560000000     
    H    2.0640000000       -1.0890000000       -3.8810000000     
    H    0.7870000000       -2.2270000000       -3.5290000000     
    H    2.7640000000       -2.4170000000       -2.0240000000     
    H    1.2670000000       -2.1670000000       -1.1520000000     
    H    3.1890000000        0.1230000000       -1.8260000000     
    H    1.7720000000        0.2070000000       -0.8040000000     
    H    2.9380000000       -2.8560000000        0.5670000000     
    H    3.3810000000       -1.9290000000        1.9980000000     
    H    1.8030000000       -1.6860000000        1.2490000000     
    H    4.4930000000        1.0340000000        0.5770000000     
    H    4.2810000000        2.5500000000        2.1840000000     
    H    2.8060000000        2.6100000000        3.1620000000     
    H    2.8020000000        3.2720000000        1.5000000000     
    H    5.5330000000       -0.8930000000        1.6170000000     
    H    7.6060000000       -1.9770000000        1.4720000000     
    H    7.2160000000       -2.5390000000       -0.1830000000     
    H    7.7140000000       -0.8470000000        0.0910000000     
    H   -3.5080000000        1.4700000000       -1.4360000000     
    H   -5.9610000000        2.0860000000       -2.7450000000     
    H   -4.5680000000        1.1760000000       -3.3890000000     
    H   -6.1730000000        0.4290000000       -3.3830000000     


