--Link1--
%chk=conf7
#HF/6-31G* SCF=tight Test Pop=MK iop(6/33=2) iop(6/42=6) opt

remark line goes here

0   1
    C   -6.2140000000       -0.0970000000        3.4090000000     
    N   -5.3580000000       -0.1720000000        2.2500000000     
    C   -5.9110000000       -0.1720000000        0.9860000000     
    O   -7.1310000000       -0.2590000000        0.8140000000     
    C   -4.9200000000       -0.2170000000       -0.2260000000     
    C   -4.6810000000       -1.7060000000       -0.5380000000     
    C   -3.5830000000        0.5500000000       -0.0190000000     
    C   -2.4170000000       -0.2450000000        0.5910000000     
    C   -1.2160000000        0.6660000000        0.8640000000     
    C   -0.0760000000       -0.1060000000        1.4660000000     
    C    1.0740000000       -0.4460000000        0.8630000000     
    C    1.4540000000       -0.1850000000       -0.5680000000     
    C    2.3350000000        1.0540000000       -0.7450000000     
    C    3.7020000000        1.0430000000       -0.0400000000     
    C    4.7450000000       -0.0070000000       -0.5230000000     
    C    4.8930000000        0.0480000000       -2.0510000000     
    N    4.3570000000       -1.3420000000       -0.0210000000     
    C    4.9080000000       -2.5190000000       -0.4860000000     
    C    4.5610000000       -3.7160000000        0.3600000000     
    O    5.6160000000       -2.6170000000       -1.4810000000     
    C    6.0850000000        0.3300000000        0.2170000000     
    O    6.4000000000       -0.2340000000        1.2680000000     
    N    6.8210000000        1.3810000000       -0.2950000000     
    C    8.0920000000        1.7310000000        0.2870000000     
    N   -5.6910000000        0.3480000000       -1.3640000000     
    C   -5.9450000000        1.6990000000       -1.4880000000     
    C   -6.9500000000        2.0260000000       -2.5610000000     
    O   -5.4280000000        2.5710000000       -0.7990000000     
    H   -5.6120000000       -0.2950000000        4.2980000000     
    H   -7.0180000000       -0.8340000000        3.3310000000     
    H   -6.6440000000        0.9070000000        3.4660000000     
    H   -4.4340000000        0.2190000000        2.3550000000     
    H   -4.0400000000       -1.8270000000       -1.4180000000     
    H   -4.2240000000       -2.2350000000        0.3060000000     
    H   -5.6250000000       -2.2220000000       -0.7540000000     
    H   -3.7600000000        1.4370000000        0.6020000000     
    H   -3.2340000000        0.9230000000       -0.9920000000     
    H   -2.7240000000       -0.7340000000        1.5220000000     
    H   -2.1080000000       -1.0370000000       -0.1020000000     
    H   -1.5020000000        1.4560000000        1.5690000000     
    H   -0.9150000000        1.1760000000       -0.0570000000     
    H   -0.2050000000       -0.3910000000        2.5100000000     
    H    1.8080000000       -0.9940000000        1.4520000000     
    H    1.9470000000       -1.0740000000       -0.9750000000     
    H    0.5540000000       -0.0610000000       -1.1820000000     
    H    2.4770000000        1.2310000000       -1.8180000000     
    H    1.7800000000        1.9280000000       -0.3770000000     
    H    4.1300000000        2.0460000000       -0.1750000000     
    H    3.5510000000        0.9420000000        1.0440000000     
    H    4.0770000000       -0.4830000000       -2.5540000000     
    H    5.8380000000       -0.3910000000       -2.3880000000     
    H    4.8900000000        1.0820000000       -2.4170000000     
    H    4.2120000000       -1.3520000000        0.9830000000     
    H    4.3580000000       -4.5700000000       -0.2930000000     
    H    3.6680000000       -3.5320000000        0.9650000000     
    H    5.4020000000       -3.9460000000        1.0180000000     
    H    6.6630000000        1.6610000000       -1.2540000000     
    H    8.0090000000        1.7770000000        1.3770000000     
    H    8.3980000000        2.7040000000       -0.1040000000     
    H    8.8280000000        0.9720000000        0.0090000000     
    H   -6.4780000000       -0.2290000000       -1.6400000000     
    H   -7.9200000000        2.2220000000       -2.0950000000     
    H   -7.0540000000        1.2060000000       -3.2760000000     
    H   -6.6160000000        2.9130000000       -3.1070000000     


