--Link1--
%chk=conf8
#HF/6-31G* SCF=tight Test Pop=MK iop(6/33=2) iop(6/42=6) opt

remark line goes here

0   1
    C   -6.7010000000       -3.2660000000        0.3360000000     
    N   -6.1440000000       -2.1100000000       -0.3150000000     
    C   -4.9910000000       -1.5140000000        0.1570000000     
    O   -4.3530000000       -1.9830000000        1.0990000000     
    C   -4.6070000000       -0.1660000000       -0.5390000000     
    C   -4.6450000000       -0.2800000000       -2.0710000000     
    C   -3.1790000000        0.2660000000       -0.0770000000     
    C   -2.0110000000       -0.6300000000       -0.5250000000     
    C   -1.2560000000       -0.0680000000       -1.7350000000     
    C   -0.1180000000       -0.9700000000       -2.1220000000     
    C    1.1910000000       -0.6690000000       -2.1200000000     
    C    1.8140000000        0.6520000000       -1.7640000000     
    C    2.1070000000        0.8120000000       -0.2670000000     
    C    3.1180000000       -0.1910000000        0.3170000000     
    C    4.5930000000        0.3030000000        0.4570000000     
    C    5.1150000000        0.7730000000       -0.9100000000     
    N    5.3660000000       -0.8550000000        0.9820000000     
    C    6.7320000000       -0.9050000000        1.1180000000     
    C    7.2380000000       -2.1830000000        1.7340000000     
    O    7.4880000000        0.0110000000        0.8100000000     
    C    4.6590000000        1.4420000000        1.5290000000     
    O    3.7260000000        1.6980000000        2.2890000000     
    N    5.8700000000        2.1000000000        1.6100000000     
    C    6.1260000000        3.0580000000        2.6540000000     
    N   -5.5360000000        0.8810000000       -0.0340000000     
    C   -6.8730000000        0.9720000000       -0.3380000000     
    C   -7.5850000000        2.0960000000        0.3660000000     
    O   -7.4630000000        0.1940000000       -1.0810000000     
    H   -7.4570000000       -3.7040000000       -0.3200000000     
    H   -5.9150000000       -3.9980000000        0.5420000000     
    H   -7.1620000000       -2.9530000000        1.2770000000     
    H   -6.7900000000       -1.4990000000       -0.8190000000     
    H   -5.6400000000       -0.5030000000       -2.4660000000     
    H   -4.3230000000        0.6570000000       -2.5400000000     
    H   -3.9980000000       -1.0890000000       -2.4270000000     
    H   -2.9910000000        1.3020000000       -0.3900000000     
    H   -3.1680000000        0.2950000000        1.0220000000     
    H   -1.3030000000       -0.7010000000        0.3120000000     
    H   -2.3500000000       -1.6530000000       -0.7240000000     
    H   -1.9230000000        0.0250000000       -2.5980000000     
    H   -0.9060000000        0.9430000000       -1.5020000000     
    H   -0.4040000000       -1.9780000000       -2.4240000000     
    H    1.8890000000       -1.4500000000       -2.4180000000     
    H    2.7300000000        0.7670000000       -2.3520000000     
    H    1.1620000000        1.4730000000       -2.0880000000     
    H    1.1610000000        0.6940000000        0.2780000000     
    H    2.4310000000        1.8420000000       -0.0790000000     
    H    3.1050000000       -1.1240000000       -0.2610000000     
    H    2.7560000000       -0.4730000000        1.3160000000     
    H    6.1740000000        1.0470000000       -0.8990000000     
    H    5.0010000000       -0.0150000000       -1.6630000000     
    H    4.5830000000        1.6660000000       -1.2540000000     
    H    4.8390000000       -1.5020000000        1.5560000000     
    H    7.4280000000       -2.0170000000        2.7980000000     
    H    8.1640000000       -2.4800000000        1.2350000000     
    H    6.5140000000       -2.9940000000        1.6190000000     
    H    6.6760000000        1.6070000000        1.2190000000     
    H    5.2790000000        3.7430000000        2.7520000000     
    H    6.2720000000        2.5230000000        3.5950000000     
    H    7.0300000000        3.6160000000        2.4000000000     
    H   -5.2450000000        1.3430000000        0.8200000000     
    H   -8.1080000000        1.6980000000        1.2390000000     
    H   -6.8840000000        2.8710000000        0.6880000000     
    H   -8.3040000000        2.5510000000       -0.3210000000     


