--Link1--
%chk=conf9
#HF/6-31G* SCF=tight Test Pop=MK iop(6/33=2) iop(6/42=6) opt

remark line goes here

0   1
    C   -5.1260000000        2.6920000000        2.0020000000     
    N   -4.5970000000        1.4350000000        1.5320000000     
    C   -5.0180000000        0.9130000000        0.3230000000     
    O   -5.7210000000        1.5590000000       -0.4560000000     
    C   -4.4320000000       -0.4830000000       -0.0640000000     
    C   -4.4810000000       -1.4750000000        1.1160000000     
    C   -2.9370000000       -0.3150000000       -0.4620000000     
    C   -2.6620000000        0.6550000000       -1.6250000000     
    C   -1.1650000000        0.8670000000       -1.8770000000     
    C   -0.4780000000       -0.3670000000       -2.3920000000     
    C    0.4510000000       -1.1070000000       -1.7660000000     
    C    0.9910000000       -0.9120000000       -0.3780000000     
    C    2.4350000000       -0.4020000000       -0.4140000000     
    C    2.9870000000       -0.2130000000        1.0070000000     
    C    4.4660000000        0.2630000000        1.0980000000     
    C    4.8180000000        0.3720000000        2.5950000000     
    N    4.6080000000        1.5580000000        0.3930000000     
    C    5.6910000000        2.3970000000        0.5650000000     
    C    5.7580000000        3.5030000000       -0.4550000000     
    O    6.5370000000        2.2830000000        1.4440000000     
    C    5.3810000000       -0.7640000000        0.3580000000     
    O    5.8140000000       -0.5460000000       -0.7760000000     
    N    5.5690000000       -1.9780000000        0.9910000000     
    C    6.4420000000       -2.9700000000        0.4120000000     
    N   -5.2000000000       -0.9690000000       -1.2330000000     
    C   -6.4650000000       -1.5120000000       -1.1310000000     
    C   -7.1530000000       -1.6780000000       -2.4620000000     
    O   -7.0110000000       -1.8340000000       -0.0830000000     
    H   -4.5190000000        3.0310000000        2.8440000000     
    H   -5.1010000000        3.4360000000        1.2020000000     
    H   -6.1590000000        2.5390000000        2.3270000000     
    H   -4.2310000000        0.8020000000        2.2290000000     
    H   -3.6910000000       -1.2720000000        1.8490000000     
    H   -5.4260000000       -1.4160000000        1.6650000000     
    H   -4.3450000000       -2.5070000000        0.7720000000     
    H   -2.3670000000        0.0320000000        0.4110000000     
    H   -2.5360000000       -1.3020000000       -0.7260000000     
    H   -3.1040000000        1.6330000000       -1.4050000000     
    H   -3.1340000000        0.2910000000       -2.5440000000     
    H   -1.0470000000        1.6510000000       -2.6350000000     
    H   -0.6870000000        1.2550000000       -0.9720000000     
    H   -0.7610000000       -0.6650000000       -3.4010000000     
    H    0.8600000000       -1.9620000000       -2.3040000000     
    H    0.3680000000       -0.2270000000        0.2050000000     
    H    0.9510000000       -1.8770000000        0.1420000000     
    H    2.4630000000        0.5480000000       -0.9600000000     
    H    3.0560000000       -1.1150000000       -0.9690000000     
    H    2.3490000000        0.5140000000        1.5290000000     
    H    2.8790000000       -1.1650000000        1.5430000000     
    H    4.4360000000       -0.4830000000        3.1650000000     
    H    5.9000000000        0.3880000000        2.7630000000     
    H    4.3870000000        1.2760000000        3.0390000000     
    H    4.3090000000        1.5180000000       -0.5750000000     
    H    6.0710000000        4.4280000000        0.0380000000     
    H    6.4810000000        3.2340000000       -1.2290000000     
    H    4.7820000000        3.6790000000       -0.9180000000     
    H    5.4120000000       -2.0320000000        1.9880000000     
    H    7.4780000000       -2.6440000000        0.5370000000     
    H    6.2230000000       -3.0900000000       -0.6530000000     
    H    6.2850000000       -3.9170000000        0.9330000000     
    H   -5.1010000000       -0.3780000000       -2.0500000000     
    H   -7.8540000000       -0.8520000000       -2.6070000000     
    H   -6.4330000000       -1.6890000000       -3.2850000000     
    H   -7.6940000000       -2.6280000000       -2.4700000000     


