--Link1--
%chk=conf1
#HF/6-31G* SCF=tight Test Pop=MK iop(6/33=2) iop(6/42=6) opt

remark line goes here

0   1
    C    4.1240000000       -1.0740000000       -3.4980000000     
    N    3.7790000000       -0.3010000000       -2.3290000000     
    C    4.7500000000        0.0060000000       -1.3950000000     
    O    5.9450000000       -0.2210000000       -1.6050000000     
    C    4.2790000000        0.8060000000       -0.1320000000     
    C    4.2370000000        2.2860000000       -0.5610000000     
    C    2.8790000000        0.3790000000        0.3840000000     
    C    2.4830000000        0.9710000000        1.7470000000     
    C    1.0480000000        0.6170000000        2.1570000000     
    C    0.8460000000       -0.8560000000        2.3750000000     
    C   -0.0010000000       -1.6690000000        1.7230000000     
    C   -0.9110000000       -1.3050000000        0.5880000000     
    C   -2.3340000000       -1.0310000000        1.0810000000     
    C   -3.2690000000       -0.7070000000       -0.0920000000     
    C   -4.7060000000       -0.2900000000        0.3170000000     
    C   -5.4300000000       -1.4920000000        0.9630000000     
    N   -4.7330000000        0.8110000000        1.3060000000     
    C   -4.1840000000        2.0560000000        1.2980000000     
    C   -3.2800000000        2.4860000000        0.1800000000     
    O   -4.4150000000        2.8030000000        2.2500000000     
    C   -5.5430000000        0.1270000000       -0.9410000000     
    O   -6.1250000000        1.2070000000       -1.0280000000     
    N   -5.5960000000       -0.8060000000       -1.9620000000     
    C   -6.4070000000       -0.5700000000       -3.1310000000     
    N    5.3570000000        0.6500000000        0.8680000000     
    C    5.5660000000       -0.5330000000        1.5490000000     
    C    6.8610000000       -0.5630000000        2.3180000000     
    O    4.7980000000       -1.4880000000        1.5420000000     
    H    5.0190000000       -0.6620000000       -3.9720000000     
    H    4.3140000000       -2.1070000000       -3.1940000000     
    H    3.2840000000       -1.0400000000       -4.1960000000     
    H    2.8210000000       -0.3600000000       -2.0170000000     
    H    5.1800000000        2.5870000000       -1.0340000000     
    H    4.0850000000        2.9520000000        0.2940000000     
    H    3.4380000000        2.4700000000       -1.2880000000     
    H    2.8140000000       -0.7140000000        0.4210000000     
    H    2.1160000000        0.6860000000       -0.3450000000     
    H    2.5600000000        2.0630000000        1.7130000000     
    H    3.1740000000        0.6310000000        2.5270000000     
    H    0.3470000000        1.0210000000        1.4190000000     
    H    0.8210000000        1.1270000000        3.1000000000     
    H    1.4530000000       -1.2920000000        3.1700000000     
    H   -0.0310000000       -2.7140000000        2.0310000000     
    H   -0.9170000000       -2.1370000000       -0.1270000000     
    H   -0.5290000000       -0.4400000000        0.0360000000     
    H   -2.3110000000       -0.1970000000        1.7910000000     
    H   -2.7080000000       -1.9070000000        1.6240000000     
    H   -3.3150000000       -1.5930000000       -0.7400000000     
    H   -2.8150000000        0.0670000000       -0.7180000000     
    H   -6.4950000000       -1.2720000000        1.1120000000     
    H   -5.3670000000       -2.3920000000        0.3430000000     
    H   -5.0130000000       -1.7330000000        1.9460000000     
    H   -5.4030000000        0.7310000000        2.0620000000     
    H   -2.2780000000        2.0830000000        0.3410000000     
    H   -3.2180000000        3.5790000000        0.1750000000     
    H   -3.6650000000        2.1800000000       -0.7930000000     
    H   -5.2990000000       -1.7560000000       -1.7840000000     
    H   -7.4560000000       -0.7270000000       -2.8670000000     
    H   -6.1100000000       -1.2770000000       -3.9080000000     
    H   -6.2690000000        0.4550000000       -3.4870000000     
    H    6.2210000000        1.1110000000        0.6050000000     
    H    7.2470000000        0.4460000000        2.4900000000     
    H    7.5990000000       -1.1400000000        1.7560000000     
    H    6.6890000000       -1.0310000000        3.2920000000     


