--Link1--
%chk=conf10
#HF/6-31G* SCF=tight Test Pop=MK iop(6/33=2) iop(6/42=6) opt

remark line goes here

0   1
    C   -5.1340000000        2.4970000000       -0.6370000000     
    N   -4.1380000000        1.5020000000       -0.3280000000     
    C   -4.4970000000        0.2270000000        0.0480000000     
    O   -5.6780000000       -0.0930000000        0.2150000000     
    C   -3.3390000000       -0.7970000000        0.2930000000     
    C   -2.4070000000       -0.8480000000       -0.9260000000     
    C   -2.5990000000       -0.4890000000        1.6180000000     
    C   -1.8750000000        0.8600000000        1.7160000000     
    C   -0.9270000000        0.8770000000        2.9190000000     
    C   -0.1890000000        2.1800000000        3.0570000000     
    C    0.9910000000        2.4770000000        2.4850000000     
    C    1.7250000000        1.5940000000        1.5110000000     
    C    2.5200000000        2.4070000000        0.4890000000     
    C    2.9640000000        1.6500000000       -0.7770000000     
    C    3.7630000000        0.3280000000       -0.6070000000     
    C    5.0240000000        0.6030000000        0.2360000000     
    N    3.0000000000       -0.7620000000        0.0390000000     
    C    1.7700000000       -1.1870000000       -0.4320000000     
    C    1.2650000000       -2.4440000000        0.2270000000     
    O    1.1100000000       -0.5910000000       -1.2760000000     
    C    4.2850000000       -0.2950000000       -1.9520000000     
    O    4.4790000000       -1.5110000000       -2.0580000000     
    N    4.6600000000        0.5790000000       -2.9530000000     
    C    5.1210000000        0.0650000000       -4.2200000000     
    N   -4.0560000000       -2.0910000000        0.4210000000     
    C   -3.4770000000       -3.3150000000        0.6340000000     
    C   -4.4660000000       -4.4440000000        0.7570000000     
    O   -2.2700000000       -3.5030000000        0.7390000000     
    H   -5.9440000000        2.4660000000        0.0970000000     
    H   -4.6590000000        3.4810000000       -0.6250000000     
    H   -5.5370000000        2.2920000000       -1.6330000000     
    H   -3.1850000000        1.6890000000       -0.6100000000     
    H   -1.6250000000       -1.6030000000       -0.8070000000     
    H   -1.9050000000        0.1040000000       -1.1180000000     
    H   -2.9690000000       -1.1010000000       -1.8330000000     
    H   -3.3140000000       -0.5500000000        2.4500000000     
    H   -1.8630000000       -1.2810000000        1.8020000000     
    H   -1.3050000000        1.0560000000        0.8030000000     
    H   -2.6060000000        1.6690000000        1.8250000000     
    H   -0.2120000000        0.0490000000        2.8460000000     
    H   -1.4940000000        0.7020000000        3.8420000000     
    H   -0.6410000000        2.9140000000        3.7220000000     
    H    1.4490000000        3.4350000000        2.7230000000     
    H    1.0070000000        0.9640000000        0.9820000000     
    H    2.4050000000        0.9470000000        2.0760000000     
    H    1.9180000000        3.2640000000        0.1560000000     
    H    3.4010000000        2.8400000000        0.9820000000     
    H    3.5840000000        2.3690000000       -1.3270000000     
    H    2.0920000000        1.4980000000       -1.4190000000     
    H    5.6190000000        1.4180000000       -0.1930000000     
    H    5.6720000000       -0.2810000000        0.2830000000     
    H    4.7730000000        0.8660000000        1.2680000000     
    H    3.5830000000       -1.5270000000        0.3600000000     
    H    2.0550000000       -2.9620000000        0.7770000000     
    H    0.4640000000       -2.1820000000        0.9230000000     
    H    0.8810000000       -3.1210000000       -0.5410000000     
    H    4.2240000000        1.4890000000       -2.9780000000     
    H    4.2730000000       -0.3730000000       -4.7540000000     
    H    5.5380000000        0.8910000000       -4.7990000000     
    H    5.8860000000       -0.7000000000       -4.0600000000     
    H   -5.0710000000       -2.0140000000        0.4340000000     
    H   -5.4450000000       -4.1700000000        0.3520000000     
    H   -4.5770000000       -4.7100000000        1.8110000000     
    H   -4.0960000000       -5.3060000000        0.1950000000     


