--Link1--
%chk=conf12
#HF/6-31G* SCF=tight Test Pop=MK iop(6/33=2) iop(6/42=6) opt

remark line goes here

0   1
    C   -1.3030000000       -1.3310000000       -2.6080000000     
    N   -1.0940000000        0.0800000000       -2.3900000000     
    C   -1.9040000000        1.0220000000       -1.8420000000     
    O   -1.5840000000        2.2010000000       -2.0670000000     
    C   -3.1230000000        0.7160000000       -0.9010000000     
    C   -4.0400000000       -0.3870000000       -1.4370000000     
    C   -2.6410000000        0.4840000000        0.5550000000     
    C   -1.8330000000       -0.7880000000        0.8180000000     
    C   -1.5460000000       -0.9760000000        2.3120000000     
    C   -0.8010000000       -2.2620000000        2.5350000000     
    C    0.4270000000       -2.4110000000        3.0550000000     
    C    1.3330000000       -1.3340000000        3.5760000000     
    C    2.0290000000       -0.4700000000        2.5170000000     
    C    2.6620000000       -1.2720000000        1.3680000000     
    C    3.7180000000       -0.4910000000        0.5370000000     
    C    5.0160000000       -0.3860000000        1.3730000000     
    N    4.0870000000       -1.2150000000       -0.7100000000     
    C    3.2160000000       -1.6620000000       -1.6740000000     
    C    3.8930000000       -2.3190000000       -2.8470000000     
    O    1.9980000000       -1.5160000000       -1.6310000000     
    C    3.2460000000        0.9580000000        0.1880000000     
    O    3.8060000000        1.9580000000        0.6340000000     
    N    2.1310000000        1.0360000000       -0.6150000000     
    C    1.5070000000        2.2860000000       -0.9630000000     
    N   -3.8600000000        2.0150000000       -0.9500000000     
    C   -5.0180000000        2.3190000000       -0.2800000000     
    C   -5.4660000000        3.7450000000       -0.4580000000     
    O   -5.6430000000        1.5300000000        0.4200000000     
    H   -0.4170000000       -1.7350000000       -3.1030000000     
    H   -2.1700000000       -1.4680000000       -3.2600000000     
    H   -1.4510000000       -1.8520000000       -1.6650000000     
    H   -0.3710000000        0.5030000000       -2.9600000000     
    H   -3.5940000000       -1.3800000000       -1.3830000000     
    H   -4.3020000000       -0.1990000000       -2.4850000000     
    H   -4.9780000000       -0.4500000000       -0.8760000000     
    H   -3.5100000000        0.4710000000        1.2240000000     
    H   -2.0340000000        1.3450000000        0.8700000000     
    H   -0.8810000000       -0.7400000000        0.2790000000     
    H   -2.3830000000       -1.6630000000        0.4550000000     
    H   -0.9940000000       -0.1130000000        2.6970000000     
    H   -2.4890000000       -1.0240000000        2.8700000000     
    H   -1.3290000000       -3.1640000000        2.2280000000     
    H    0.8210000000       -3.4240000000        3.1320000000     
    H    2.1040000000       -1.8190000000        4.1890000000     
    H    0.7800000000       -0.6860000000        4.2670000000     
    H    2.7840000000        0.1340000000        3.0320000000     
    H    1.3040000000        0.2380000000        2.0990000000     
    H    3.1300000000       -2.1830000000        1.7640000000     
    H    1.8430000000       -1.6180000000        0.7290000000     
    H    5.8030000000        0.1360000000        0.8150000000     
    H    4.8680000000        0.1660000000        2.3070000000     
    H    5.4050000000       -1.3800000000        1.6240000000     
    H    5.0530000000       -1.1160000000       -0.9980000000     
    H    3.9940000000       -1.5920000000       -3.6570000000     
    H    3.2880000000       -3.1650000000       -3.1840000000     
    H    4.8830000000       -2.6960000000       -2.5760000000     
    H    1.6950000000        0.1650000000       -0.9230000000     
    H    0.6220000000        2.4110000000       -0.3340000000     
    H    1.2120000000        2.2410000000       -2.0130000000     
    H    2.1850000000        3.1290000000       -0.8090000000     
    H   -3.3330000000        2.7790000000       -1.3700000000     
    H   -5.1900000000        4.3210000000        0.4290000000     
    H   -5.0110000000        4.2030000000       -1.3400000000     
    H   -6.5520000000        3.7650000000       -0.5870000000     


