--Link1--
%chk=conf13
#HF/6-31G* SCF=tight Test Pop=MK iop(6/33=2) iop(6/42=6) opt

remark line goes here

0   1
    C    7.2750000000        1.6500000000       -2.2880000000     
    N    6.0190000000        1.2800000000       -1.6820000000     
    C    6.0020000000        0.6590000000       -0.4470000000     
    O    7.0200000000        0.5610000000        0.2430000000     
    C    4.5900000000        0.2440000000        0.1050000000     
    C    3.9960000000        1.5470000000        0.6780000000     
    C    3.6650000000       -0.3410000000       -0.9990000000     
    C    2.4640000000       -1.2090000000       -0.5860000000     
    C    1.4470000000       -0.5290000000        0.3280000000     
    C    0.2030000000       -1.3620000000        0.4690000000     
    C   -1.0240000000       -1.0740000000        0.0060000000     
    C   -1.4260000000        0.1220000000       -0.8100000000     
    C   -2.0400000000        1.2470000000        0.0270000000     
    C   -3.3350000000        0.9170000000        0.7910000000     
    C   -4.6000000000        0.5970000000       -0.0560000000     
    C   -4.8280000000        1.6880000000       -1.1130000000     
    N   -4.4680000000       -0.7570000000       -0.6340000000     
    C   -5.2800000000       -1.2360000000       -1.6400000000     
    C   -5.1340000000       -2.7180000000       -1.8710000000     
    O   -6.0590000000       -0.5560000000       -2.2980000000     
    C   -5.7920000000        0.4900000000        0.9560000000     
    O   -6.1480000000       -0.5960000000        1.4220000000     
    N   -6.3280000000        1.6840000000        1.4010000000     
    C   -7.4610000000        1.6830000000        2.2930000000     
    N    4.8510000000       -0.6860000000        1.2210000000     
    C    5.3320000000       -1.9640000000        1.0030000000     
    C    5.7750000000       -2.6630000000        2.2600000000     
    O    5.4110000000       -2.4980000000       -0.0980000000     
    H    7.9030000000        2.1750000000       -1.5630000000     
    H    7.0710000000        2.3000000000       -3.1420000000     
    H    7.7850000000        0.7430000000       -2.6230000000     
    H    5.2420000000        1.1250000000       -2.3090000000     
    H    3.1120000000        1.3710000000        1.2940000000     
    H    4.7220000000        2.0590000000        1.3230000000     
    H    3.7260000000        2.2500000000       -0.1180000000     
    H    3.2810000000        0.4810000000       -1.6190000000     
    H    4.2700000000       -0.9470000000       -1.6880000000     
    H    2.8080000000       -2.1380000000       -0.1170000000     
    H    1.9590000000       -1.5180000000       -1.5120000000     
    H    1.8700000000       -0.4090000000        1.3310000000     
    H    1.2160000000        0.4740000000       -0.0440000000     
    H    0.3300000000       -2.2900000000        1.0280000000     
    H   -1.8170000000       -1.7910000000        0.2130000000     
    H   -0.5580000000        0.5230000000       -1.3470000000     
    H   -2.1150000000       -0.1980000000       -1.5970000000     
    H   -1.2950000000        1.5750000000        0.7640000000     
    H   -2.2080000000        2.1140000000       -0.6220000000     
    H   -3.1420000000        0.0960000000        1.4950000000     
    H   -3.5520000000        1.7890000000        1.4250000000     
    H   -4.6330000000        2.6870000000       -0.7060000000     
    H   -5.8630000000        1.7030000000       -1.4720000000     
    H   -4.1730000000        1.5510000000       -1.9800000000     
    H   -4.2590000000       -1.4610000000        0.0670000000     
    H   -4.1850000000       -3.0920000000       -1.4770000000     
    H   -5.1570000000       -2.9170000000       -2.9460000000     
    H   -5.9600000000       -3.2400000000       -1.3810000000     
    H   -6.1840000000        2.5140000000        0.8440000000     
    H   -7.5880000000        2.6920000000        2.6930000000     
    H   -8.3520000000        1.3920000000        1.7310000000     
    H   -7.2980000000        0.9760000000        3.1110000000     
    H    5.2690000000       -0.2430000000        2.0310000000     
    H    6.8650000000       -2.6260000000        2.3260000000     
    H    5.4420000000       -3.7040000000        2.2280000000     
    H    5.3450000000       -2.1960000000        3.1510000000     


