--Link1--
%chk=conf14
#HF/6-31G* SCF=tight Test Pop=MK iop(6/33=2) iop(6/42=6) opt

remark line goes here

0   1
    C   -6.5900000000       -3.0120000000       -0.7140000000     
    N   -6.1080000000       -1.9400000000        0.1220000000     
    C   -5.4630000000       -0.8550000000       -0.4420000000     
    O   -5.1340000000       -0.8390000000       -1.6310000000     
    C   -5.0370000000        0.2800000000        0.5420000000     
    C   -6.1570000000        0.6270000000        1.5480000000     
    C   -3.8030000000       -0.1900000000        1.3730000000     
    C   -2.6720000000       -0.9630000000        0.6660000000     
    C   -1.8110000000       -0.2150000000       -0.3530000000     
    C   -1.1670000000        1.0230000000        0.2020000000     
    C    0.1220000000        1.1840000000        0.5440000000     
    C    1.2160000000        0.1540000000        0.5010000000     
    C    2.2150000000        0.4610000000       -0.6200000000     
    C    3.3610000000       -0.5610000000       -0.7020000000     
    C    4.7000000000       -0.1860000000        0.0060000000     
    C    4.4830000000        0.1470000000        1.4870000000     
    N    5.5890000000       -1.3770000000       -0.1340000000     
    C    6.8800000000       -1.4000000000        0.3500000000     
    C    7.5060000000       -2.7690000000        0.3650000000     
    O    7.4890000000       -0.4050000000        0.7220000000     
    C    5.3010000000        1.0450000000       -0.7480000000     
    O    5.0900000000        2.2070000000       -0.4060000000     
    N    5.9300000000        0.7240000000       -1.9400000000     
    C    6.6200000000        1.7430000000       -2.6870000000     
    N   -4.6730000000        1.4580000000       -0.2780000000     
    C   -5.6060000000        2.2750000000       -0.8850000000     
    C   -5.0000000000        3.2440000000       -1.8670000000     
    O   -6.8130000000        2.2400000000       -0.6810000000     
    H   -7.4660000000       -2.6620000000       -1.2650000000     
    H   -6.8640000000       -3.8540000000       -0.0740000000     
    H   -5.8130000000       -3.3180000000       -1.4200000000     
    H   -6.5600000000       -1.8180000000        1.0170000000     
    H   -6.2450000000       -0.1250000000        2.3390000000     
    H   -5.9640000000        1.5900000000        2.0360000000     
    H   -7.1410000000        0.6730000000        1.0700000000     
    H   -3.3780000000        0.6700000000        1.9060000000     
    H   -4.1620000000       -0.8710000000        2.1580000000     
    H   -2.0020000000       -1.3400000000        1.4520000000     
    H   -3.0820000000       -1.8590000000        0.1860000000     
    H   -2.3970000000        0.0480000000       -1.2380000000     
    H   -1.0500000000       -0.9090000000       -0.7310000000     
    H   -1.8190000000        1.8880000000        0.3180000000     
    H    0.4290000000        2.1630000000        0.9130000000     
    H    1.7130000000        0.1540000000        1.4760000000     
    H    0.8120000000       -0.8550000000        0.3730000000     
    H    2.5970000000        1.4820000000       -0.5270000000     
    H    1.6690000000        0.4270000000       -1.5730000000     
    H    3.5740000000       -0.7270000000       -1.7670000000     
    H    3.0050000000       -1.5310000000       -0.3270000000     
    H    3.8400000000        1.0240000000        1.6200000000     
    H    5.4250000000        0.3840000000        1.9920000000     
    H    4.0320000000       -0.6980000000        2.0190000000     
    H    5.1170000000       -2.2720000000       -0.1450000000     
    H    7.5390000000       -3.1360000000        1.3950000000     
    H    8.5220000000       -2.7030000000       -0.0360000000     
    H    6.9440000000       -3.4770000000       -0.2490000000     
    H    6.2980000000       -0.2180000000       -1.9770000000     
    H    7.5150000000        2.0420000000       -2.1350000000     
    H    5.9700000000        2.6120000000       -2.8240000000     
    H    6.9020000000        1.3320000000       -3.6590000000     
    H   -3.8610000000        1.3170000000       -0.8610000000     
    H   -5.5090000000        4.2080000000       -1.7820000000     
    H   -5.1210000000        2.8510000000       -2.8800000000     
    H   -3.9360000000        3.4030000000       -1.6670000000     


