--Link1--
%chk=conf15
#HF/6-31G* SCF=tight Test Pop=MK iop(6/33=2) iop(6/42=6) opt

remark line goes here

0   1
    C   -6.1050000000        0.2250000000       -3.6760000000     
    N   -5.0410000000        0.1290000000       -2.7050000000     
    C   -5.2720000000       -0.4910000000       -1.4950000000     
    O   -6.3240000000       -1.0980000000       -1.2700000000     
    C   -4.0880000000       -0.5250000000       -0.4710000000     
    C   -3.3530000000       -1.8590000000       -0.6990000000     
    C   -3.1090000000        0.6820000000       -0.5310000000     
    C   -1.9330000000        0.5640000000       -1.5180000000     
    C   -1.1450000000        1.8710000000       -1.6780000000     
    C   -0.4560000000        2.3030000000       -0.4150000000     
    C    0.8590000000        2.2620000000       -0.1440000000     
    C    1.9630000000        1.7890000000       -1.0470000000     
    C    2.3480000000        0.3200000000       -0.8250000000     
    C    2.9080000000       -0.0280000000        0.5690000000     
    C    4.4480000000        0.0360000000        0.7780000000     
    C    5.0940000000        1.2060000000        0.0180000000     
    N    4.7850000000        0.2230000000        2.2160000000     
    C    4.2550000000       -0.5690000000        3.2150000000     
    C    4.9120000000       -0.3670000000        4.5540000000     
    O    3.3490000000       -1.3790000000        3.0550000000     
    C    5.2370000000       -1.2510000000        0.3570000000     
    O    6.3160000000       -1.5370000000        0.8850000000     
    N    4.7450000000       -1.9680000000       -0.7140000000     
    C    5.4060000000       -3.1820000000       -1.1280000000     
    N   -4.7470000000       -0.6120000000        0.8590000000     
    C   -5.3760000000        0.4680000000        1.4450000000     
    C   -6.1780000000        0.1060000000        2.6680000000     
    O   -5.3190000000        1.6180000000        1.0260000000     
    H   -6.8540000000        0.9320000000       -3.3110000000     
    H   -5.6830000000        0.5830000000       -4.6180000000     
    H   -6.5680000000       -0.7540000000       -3.8230000000     
    H   -4.3630000000        0.8780000000       -2.7190000000     
    H   -2.9460000000       -1.9350000000       -1.7120000000     
    H   -4.0300000000       -2.7120000000       -0.5700000000     
    H   -2.5360000000       -1.9860000000        0.0200000000     
    H   -2.6810000000        0.8280000000        0.4700000000     
    H   -3.6640000000        1.5990000000       -0.7630000000     
    H   -1.2480000000       -0.2250000000       -1.1860000000     
    H   -2.2990000000        0.2700000000       -2.5070000000     
    H   -0.4270000000        1.7390000000       -2.4940000000     
    H   -1.8190000000        2.6740000000       -2.0000000000     
    H   -1.1130000000        2.6920000000        0.3640000000     
    H    1.1790000000        2.6150000000        0.8370000000     
    H    1.6810000000        1.9190000000       -2.0970000000     
    H    2.8270000000        2.4450000000       -0.9030000000     
    H    3.0470000000        0.0150000000       -1.6110000000     
    H    1.4460000000       -0.2870000000       -0.9830000000     
    H    2.5720000000       -1.0500000000        0.7880000000     
    H    2.4160000000        0.6050000000        1.3180000000     
    H    4.9670000000        1.1200000000       -1.0650000000     
    H    4.6860000000        2.1660000000        0.3520000000     
    H    6.1760000000        1.2460000000        0.1990000000     
    H    5.7600000000        0.4560000000        2.3730000000     
    H    4.1450000000       -0.3680000000        5.3340000000     
    H    5.4420000000        0.5880000000        4.6000000000     
    H    5.6200000000       -1.1810000000        4.7320000000     
    H    3.7500000000       -1.9280000000       -0.8810000000     
    H    4.9820000000       -3.4990000000       -2.0840000000     
    H    5.2360000000       -3.9530000000       -0.3720000000     
    H    6.4800000000       -3.0080000000       -1.2360000000     
    H   -5.2320000000       -1.4890000000        1.0130000000     
    H   -5.8640000000       -0.8570000000        3.0820000000     
    H   -7.2360000000        0.0540000000        2.4000000000     
    H   -6.0270000000        0.8710000000        3.4340000000     


