--Link1--
%chk=conf16
#HF/6-31G* SCF=tight Test Pop=MK iop(6/33=2) iop(6/42=6) opt

remark line goes here

0   1
    C   -5.5540000000        3.0360000000       -3.0470000000     
    N   -4.8230000000        1.9390000000       -2.4630000000     
    C   -5.4330000000        1.0810000000       -1.5650000000     
    O   -6.6240000000        1.1900000000       -1.2770000000     
    C   -4.4990000000       -0.0040000000       -0.9270000000     
    C   -3.7290000000       -0.7530000000       -2.0210000000     
    C   -3.5250000000        0.7550000000        0.0260000000     
    C   -2.5690000000       -0.1000000000        0.8800000000     
    C   -1.2620000000       -0.5480000000        0.2180000000     
    C   -0.4150000000        0.5890000000       -0.2820000000     
    C    0.6290000000        1.1490000000        0.3500000000     
    C    1.1370000000        0.8050000000        1.7240000000     
    C    2.3800000000       -0.0930000000        1.7060000000     
    C    3.6010000000        0.5760000000        1.0610000000     
    C    4.9490000000       -0.1780000000        1.1770000000     
    C    5.4960000000       -0.2630000000        2.6080000000     
    N    4.8590000000       -1.5300000000        0.5620000000     
    C    4.3290000000       -2.6670000000        1.1140000000     
    C    4.4550000000       -3.8810000000        0.2320000000     
    O    3.8140000000       -2.7320000000        2.2230000000     
    C    6.0220000000        0.5210000000        0.2630000000     
    O    6.5530000000       -0.1070000000       -0.6670000000     
    N    6.4430000000        1.8040000000        0.4260000000     
    C    5.8790000000        2.8960000000        1.1810000000     
    N   -5.3270000000       -0.9150000000       -0.1040000000     
    C   -6.2580000000       -1.8470000000       -0.4440000000     
    C   -6.4850000000       -2.2060000000       -1.8830000000     
    O   -6.8820000000       -2.4090000000        0.4580000000     
    H   -5.6490000000        3.8300000000       -2.3010000000     
    H   -6.5490000000        2.7070000000       -3.3590000000     
    H   -4.9960000000        3.4050000000       -3.9110000000     
    H   -3.8150000000        1.9520000000       -2.5380000000     
    H   -4.3490000000       -0.9420000000       -2.9030000000     
    H   -2.8720000000       -0.1720000000       -2.3790000000     
    H   -3.3610000000       -1.7210000000       -1.6650000000     
    H   -2.9540000000        1.5100000000       -0.5270000000     
    H   -4.1420000000        1.3320000000        0.7310000000     
    H   -2.3030000000        0.4950000000        1.7650000000     
    H   -3.0890000000       -0.9830000000        1.2660000000     
    H   -0.6970000000       -1.1510000000        0.9390000000     
    H   -1.4580000000       -1.2260000000       -0.6170000000     
    H   -0.6610000000        0.9620000000       -1.2750000000     
    H    1.1610000000        1.9510000000       -0.1590000000     
    H    1.3610000000        1.7390000000        2.2540000000     
    H    0.3550000000        0.3130000000        2.3130000000     
    H    2.6100000000       -0.3600000000        2.7430000000     
    H    2.1330000000       -1.0180000000        1.1730000000     
    H    3.3890000000        0.7460000000       -0.0030000000     
    H    3.6960000000        1.5670000000        1.5130000000     
    H    5.6680000000        0.7200000000        3.0510000000     
    H    6.4570000000       -0.7920000000        2.6240000000     
    H    4.8220000000       -0.7930000000        3.2840000000     
    H    5.3910000000       -1.6260000000       -0.3020000000     
    H    3.5480000000       -4.4850000000        0.3210000000     
    H    4.5760000000       -3.6030000000       -0.8190000000     
    H    5.3200000000       -4.4680000000        0.5520000000     
    H    7.1120000000        2.0570000000       -0.2930000000     
    H    5.5810000000        2.5870000000        2.1800000000     
    H    6.6340000000        3.6820000000        1.2570000000     
    H    5.0130000000        3.2830000000        0.6370000000     
    H   -5.4200000000       -0.6820000000        0.8780000000     
    H   -6.5960000000       -1.3130000000       -2.5010000000     
    H   -7.4150000000       -2.7780000000       -1.9660000000     
    H   -5.6640000000       -2.8290000000       -2.2440000000     


