--Link1--
%chk=conf17
#HF/6-31G* SCF=tight Test Pop=MK iop(6/33=2) iop(6/42=6) opt

remark line goes here

0   1
    C   -7.0860000000       -0.0060000000        0.9680000000     
    N   -5.8150000000        0.0560000000        0.2910000000     
    C   -4.7260000000       -0.6530000000        0.7540000000     
    O   -4.8030000000       -1.3840000000        1.7450000000     
    C   -3.4290000000       -0.5860000000       -0.1210000000     
    C   -3.6790000000       -1.4810000000       -1.3490000000     
    C   -3.1080000000        0.8590000000       -0.5840000000     
    C   -1.7880000000        1.0020000000       -1.3530000000     
    C   -1.3900000000        2.4730000000       -1.4960000000     
    C   -0.0910000000        2.6130000000       -2.2370000000     
    C    1.1190000000        2.8470000000       -1.7040000000     
    C    1.4430000000        3.0240000000       -0.2460000000     
    C    1.7760000000        1.7050000000        0.4620000000     
    C    3.0890000000        1.0690000000       -0.0240000000     
    C    3.3710000000       -0.3430000000        0.5540000000     
    C    3.6220000000       -0.2370000000        2.0710000000     
    N    2.2630000000       -1.3020000000        0.3400000000     
    C    1.7100000000       -1.5220000000       -0.9060000000     
    C    0.7490000000       -2.6810000000       -0.9460000000     
    O    1.9590000000       -0.8640000000       -1.9100000000     
    C    4.6460000000       -1.0300000000       -0.0470000000     
    O    4.7200000000       -2.2570000000       -0.1630000000     
    N    5.7310000000       -0.2130000000       -0.2960000000     
    C    6.9260000000       -0.7630000000       -0.8890000000     
    N   -2.3600000000       -1.2190000000        0.6880000000     
    C   -1.7180000000       -0.5780000000        1.7290000000     
    C   -0.8760000000       -1.4950000000        2.5770000000     
    O   -1.7930000000        0.6210000000        1.9730000000     
    H   -6.9420000000        0.0320000000        2.0510000000     
    H   -7.5800000000       -0.9420000000        0.6970000000     
    H   -7.6940000000        0.8410000000        0.6430000000     
    H   -5.7820000000        0.4980000000       -0.6170000000     
    H   -4.0330000000       -2.4750000000       -1.0480000000     
    H   -2.7620000000       -1.6310000000       -1.9300000000     
    H   -4.4380000000       -1.0540000000       -2.0130000000     
    H   -3.9080000000        1.2290000000       -1.2380000000     
    H   -3.1210000000        1.5390000000        0.2750000000     
    H   -0.9850000000        0.4600000000       -0.8420000000     
    H   -1.8900000000        0.5500000000       -2.3470000000     
    H   -2.1650000000        3.0180000000       -2.0490000000     
    H   -1.3360000000        2.9400000000       -0.5070000000     
    H   -0.1510000000        2.4770000000       -3.3170000000     
    H    1.9700000000        2.8870000000       -2.3830000000     
    H    0.6110000000        3.5080000000        0.2750000000     
    H    2.2880000000        3.7180000000       -0.1570000000     
    H    1.8540000000        1.9120000000        1.5350000000     
    H    0.9410000000        1.0080000000        0.3400000000     
    H    3.9010000000        1.7520000000        0.2590000000     
    H    3.1180000000        1.0370000000       -1.1180000000     
    H    3.9390000000       -1.2010000000        2.4890000000     
    H    2.7170000000        0.0600000000        2.6110000000     
    H    4.4130000000        0.4880000000        2.2960000000     
    H    2.3540000000       -2.1490000000        0.8880000000     
    H   -0.1890000000       -2.3500000000       -1.3990000000     
    H    1.1860000000       -3.4850000000       -1.5430000000     
    H    0.5320000000       -3.0630000000        0.0550000000     
    H    5.5630000000        0.7700000000       -0.4510000000     
    H    6.7240000000       -0.9950000000       -1.9380000000     
    H    7.7220000000       -0.0180000000       -0.8210000000     
    H    7.2230000000       -1.6740000000       -0.3640000000     
    H   -2.5460000000       -2.1960000000        0.8850000000     
    H   -0.7910000000       -2.4930000000        2.1380000000     
    H   -1.3320000000       -1.5830000000        3.5670000000     
    H    0.1280000000       -1.0730000000        2.6690000000     


