--Link1--
%chk=conf19
#HF/6-31G* SCF=tight Test Pop=MK iop(6/33=2) iop(6/42=6) opt

remark line goes here

0   1
    C   -4.8600000000       -1.9180000000        4.2720000000     
    N   -4.6500000000       -1.0030000000        3.1770000000     
    C   -5.4280000000       -1.1010000000        2.0380000000     
    O   -6.4220000000       -1.8300000000        1.9960000000     
    C   -5.0930000000       -0.1030000000        0.8800000000     
    C   -5.8470000000        1.1990000000        1.2630000000     
    C   -3.6030000000        0.3100000000        0.7180000000     
    C   -2.5600000000       -0.7870000000        0.4910000000     
    C   -1.1410000000       -0.2540000000        0.7220000000     
    C   -0.1100000000       -1.3210000000        0.4910000000     
    C    0.7850000000       -1.3800000000       -0.5090000000     
    C    0.9190000000       -0.4210000000       -1.6580000000     
    C    2.0100000000        0.6340000000       -1.4430000000     
    C    3.4250000000        0.0350000000       -1.3800000000     
    C    4.5530000000        1.0820000000       -1.1640000000     
    C    4.5780000000        2.0840000000       -2.3300000000     
    N    4.3490000000        1.7320000000        0.1490000000     
    C    5.0340000000        2.8610000000        0.5440000000     
    C    4.8700000000        3.1820000000        2.0070000000     
    O    5.7230000000        3.5560000000       -0.1930000000     
    C    5.8880000000        0.2730000000       -1.0420000000     
    O    6.3590000000       -0.0390000000        0.0540000000     
    N    6.4320000000       -0.1870000000       -2.2260000000     
    C    7.6870000000       -0.8970000000       -2.2220000000     
    N   -5.7130000000       -0.5900000000       -0.3710000000     
    C   -5.3970000000       -1.7980000000       -0.9560000000     
    C   -6.2750000000       -2.1400000000       -2.1310000000     
    O   -4.5210000000       -2.5600000000       -0.5670000000     
    H   -5.9240000000       -1.9730000000        4.5190000000     
    H   -4.2960000000       -1.5610000000        5.1370000000     
    H   -4.5020000000       -2.9080000000        3.9780000000     
    H   -3.7260000000       -0.6050000000        3.0930000000     
    H   -5.7560000000        1.9560000000        0.4750000000     
    H   -6.9180000000        1.0100000000        1.4100000000     
    H   -5.4650000000        1.6290000000        2.1960000000     
    H   -3.5250000000        1.0180000000       -0.1190000000     
    H   -3.3020000000        0.8780000000        1.6090000000     
    H   -2.6230000000       -1.1430000000       -0.5420000000     
    H   -2.7400000000       -1.6380000000        1.1580000000     
    H   -1.0410000000        0.0940000000        1.7570000000     
    H   -0.9650000000        0.6220000000        0.0880000000     
    H   -0.0930000000       -2.1210000000        1.2310000000     
    H    1.4720000000       -2.2250000000       -0.5210000000     
    H    1.1330000000       -0.9960000000       -2.5670000000     
    H   -0.0330000000        0.0860000000       -1.8500000000     
    H    1.7970000000        1.1960000000       -0.5260000000     
    H    1.9520000000        1.3460000000       -2.2740000000     
    H    3.4690000000       -0.7030000000       -0.5680000000     
    H    3.6130000000       -0.5250000000       -2.3060000000     
    H    3.8070000000        2.8540000000       -2.2150000000     
    H    4.4050000000        1.5860000000       -3.2910000000     
    H    5.5460000000        2.5890000000       -2.4150000000     
    H    4.2030000000        1.0690000000        0.9020000000     
    H    5.7560000000        2.8420000000        2.5500000000     
    H    4.7550000000        4.2630000000        2.1260000000     
    H    3.9830000000        2.6970000000        2.4250000000     
    H    6.1650000000        0.2680000000       -3.0880000000     
    H    8.4930000000       -0.1840000000       -2.0280000000     
    H    7.6840000000       -1.6650000000       -1.4440000000     
    H    7.8280000000       -1.3590000000       -3.2010000000     
    H   -6.6860000000       -0.3350000000       -0.4870000000     
    H   -6.7380000000       -1.2450000000       -2.5570000000     
    H   -7.0570000000       -2.8300000000       -1.8060000000     
    H   -5.6660000000       -2.6100000000       -2.9090000000     


