--Link1--
%chk=conf2
#HF/6-31G* SCF=tight Test Pop=MK iop(6/33=2) iop(6/42=6) opt

remark line goes here

0   1
    C   -6.4120000000        1.8910000000       -2.6020000000     
    N   -5.4850000000        1.2330000000       -1.7160000000     
    C   -5.8330000000        0.9340000000       -0.4150000000     
    O   -6.9140000000        1.2800000000        0.0690000000     
    C   -4.7660000000        0.1470000000        0.4350000000     
    C   -4.5190000000       -1.1890000000       -0.2760000000     
    C   -3.5230000000        1.0680000000        0.5440000000     
    C   -2.3760000000        0.7020000000        1.4950000000     
    C   -1.4800000000       -0.4740000000        1.1000000000     
    C   -0.8330000000       -0.3150000000       -0.2490000000     
    C    0.4120000000        0.1250000000       -0.4950000000     
    C    1.4060000000        0.6180000000        0.5210000000     
    C    2.4380000000       -0.4370000000        0.9330000000     
    C    3.3080000000       -1.0370000000       -0.1860000000     
    C    4.5620000000       -0.2250000000       -0.6180000000     
    C    4.1680000000        1.0910000000       -1.3010000000     
    N    5.4280000000       -0.0220000000        0.5650000000     
    C    6.5000000000        0.8470000000        0.5750000000     
    C    7.3930000000        0.6850000000        1.7770000000     
    O    6.7360000000        1.6780000000       -0.2950000000     
    C    5.3730000000       -1.1610000000       -1.5790000000     
    O    6.3170000000       -1.8450000000       -1.1760000000     
    N    4.8870000000       -1.2770000000       -2.8680000000     
    C    5.5930000000       -2.0720000000       -3.8420000000     
    N   -5.4530000000       -0.0300000000        1.7300000000     
    C   -5.0940000000       -0.8690000000        2.7520000000     
    C   -6.0330000000       -0.8290000000        3.9290000000     
    O   -4.1210000000       -1.6130000000        2.7330000000     
    H   -5.8560000000        2.2890000000       -3.4540000000     
    H   -7.1460000000        1.1590000000       -2.9470000000     
    H   -6.9250000000        2.7040000000       -2.0800000000     
    H   -4.6580000000        0.8160000000       -2.1220000000     
    H   -5.4700000000       -1.6780000000       -0.5220000000     
    H   -3.9530000000       -1.9000000000        0.3260000000     
    H   -3.9740000000       -1.0530000000       -1.2160000000     
    H   -3.8790000000        2.0570000000        0.8710000000     
    H   -3.1050000000        1.2420000000       -0.4560000000     
    H   -2.7600000000        0.5440000000        2.5070000000     
    H   -1.7330000000        1.5900000000        1.5760000000     
    H   -2.0370000000       -1.4140000000        1.1090000000     
    H   -0.7140000000       -0.5990000000        1.8740000000     
    H   -1.4370000000       -0.6260000000       -1.0990000000     
    H    0.7410000000        0.1600000000       -1.5320000000     
    H    0.8870000000        0.9620000000        1.4230000000     
    H    1.8940000000        1.5100000000        0.1230000000     
    H    1.8930000000       -1.2670000000        1.4040000000     
    H    3.0740000000       -0.0190000000        1.7220000000     
    H    2.6910000000       -1.2740000000       -1.0620000000     
    H    3.6560000000       -2.0130000000        0.1840000000     
    H    4.9620000000        1.4620000000       -1.9590000000     
    H    3.9540000000        1.8770000000       -0.5710000000     
    H    3.2830000000        0.9660000000       -1.9350000000     
    H    5.6100000000       -0.8790000000        1.0760000000     
    H    7.7000000000        1.6730000000        2.1320000000     
    H    6.8740000000        0.1770000000        2.5950000000     
    H    8.2740000000        0.1050000000        1.4940000000     
    H    4.2770000000       -0.5530000000       -3.2210000000     
    H    4.9450000000       -2.2160000000       -4.7090000000     
    H    6.5000000000       -1.5390000000       -4.1410000000     
    H    5.8640000000       -3.0410000000       -3.4140000000     
    H   -6.3320000000        0.4790000000        1.8110000000     
    H   -6.7130000000       -1.6830000000        3.8740000000     
    H   -6.6160000000        0.0950000000        3.9470000000     
    H   -5.4500000000       -0.8800000000        4.8530000000     


