--Link1--
%chk=conf20
#HF/6-31G* SCF=tight Test Pop=MK iop(6/33=2) iop(6/42=6) opt

remark line goes here

0   1
    C   -5.7200000000       -0.9200000000        4.2920000000     
    N   -5.4950000000       -0.2060000000        3.0600000000     
    C   -5.2590000000       -0.8780000000        1.8800000000     
    O   -5.2890000000       -2.1090000000        1.8070000000     
    C   -4.9380000000        0.0040000000        0.6300000000     
    C   -6.1350000000        0.9350000000        0.3770000000     
    C   -3.6480000000        0.8300000000        0.8630000000     
    C   -2.3990000000       -0.0250000000        1.1350000000     
    C   -1.1490000000        0.8110000000        1.4290000000     
    C   -0.6600000000        1.5860000000        0.2380000000     
    C    0.4220000000        1.3170000000       -0.5110000000     
    C    1.3500000000        0.1430000000       -0.3680000000     
    C    2.6120000000        0.4600000000        0.4430000000     
    C    3.5740000000        1.4660000000       -0.2140000000     
    C    4.7780000000        0.8720000000       -0.9940000000     
    C    5.7000000000        2.0190000000       -1.4470000000     
    N    5.5640000000       -0.1180000000       -0.2190000000     
    C    6.1190000000        0.1300000000        1.0160000000     
    C    7.0190000000       -0.9740000000        1.5060000000     
    O    5.9260000000        1.1430000000        1.6740000000     
    C    4.2580000000        0.1570000000       -2.2790000000     
    O    3.9540000000        0.7550000000       -3.3080000000     
    N    4.0650000000       -1.2090000000       -2.1310000000     
    C    3.4460000000       -1.9810000000       -3.1790000000     
    N   -4.7870000000       -0.9510000000       -0.4830000000     
    C   -4.5210000000       -0.6200000000       -1.7860000000     
    C   -4.3940000000       -1.8020000000       -2.7080000000     
    O   -4.3810000000        0.5300000000       -2.1890000000     
    H   -4.7570000000       -1.2710000000        4.6730000000     
    H   -6.3780000000       -1.7750000000        4.1210000000     
    H   -6.1760000000       -0.2360000000        5.0120000000     
    H   -5.3160000000        0.7880000000        3.1140000000     
    H   -6.3010000000        1.6210000000        1.2140000000     
    H   -7.0570000000        0.3570000000        0.2390000000     
    H   -5.9950000000        1.5480000000       -0.5190000000     
    H   -3.4640000000        1.4680000000       -0.0090000000     
    H   -3.7930000000        1.5140000000        1.7080000000     
    H   -2.2010000000       -0.6900000000        0.2850000000     
    H   -2.5800000000       -0.6680000000        2.0040000000     
    H   -1.3570000000        1.5170000000        2.2420000000     
    H   -0.3640000000        0.1470000000        1.8080000000     
    H   -1.2410000000        2.4710000000       -0.0210000000     
    H    0.6460000000        1.9940000000       -1.3350000000     
    H    0.8280000000       -0.6960000000        0.1070000000     
    H    1.6110000000       -0.2070000000       -1.3700000000     
    H    3.1280000000       -0.4760000000        0.6800000000     
    H    2.2970000000        0.8750000000        1.4110000000     
    H    3.9590000000        2.1100000000        0.5860000000     
    H    3.0170000000        2.1410000000       -0.8750000000     
    H    6.1290000000        2.5570000000       -0.5940000000     
    H    6.5350000000        1.6370000000       -2.0460000000     
    H    5.1620000000        2.7490000000       -2.0620000000     
    H    6.0260000000       -0.8240000000       -0.7820000000     
    H    8.0610000000       -0.6850000000        1.3440000000     
    H    6.8200000000       -1.9150000000        0.9850000000     
    H    6.8410000000       -1.1330000000        2.5730000000     
    H    4.0060000000       -1.5540000000       -1.1800000000     
    H    3.8800000000       -1.7180000000       -4.1470000000     
    H    3.6100000000       -3.0410000000       -2.9720000000     
    H    2.3740000000       -1.7670000000       -3.1910000000     
    H   -4.8790000000       -1.9310000000       -0.2230000000     
    H   -5.0140000000       -1.6330000000       -3.5930000000     
    H   -3.3470000000       -1.9120000000       -3.0060000000     
    H   -4.7240000000       -2.7290000000       -2.2310000000     


