--Link1--
%chk=conf21
#HF/6-31G* SCF=tight Test Pop=MK iop(6/33=2) iop(6/42=6) opt

remark line goes here

0   1
    C   -0.9430000000        5.7130000000        4.5800000000     
    N   -1.5330000000        4.8640000000        3.5760000000     
    C   -2.2990000000        3.7720000000        3.9290000000     
    O   -2.4410000000        3.4270000000        5.1050000000     
    C   -2.9580000000        2.9640000000        2.7550000000     
    C   -3.8700000000        3.9140000000        1.9660000000     
    C   -1.8070000000        2.3750000000        1.9000000000     
    C   -2.2140000000        1.4860000000        0.7200000000     
    C   -0.9910000000        1.0880000000       -0.1120000000     
    C   -1.3800000000        0.2220000000       -1.2760000000     
    C   -1.1010000000       -1.0810000000       -1.4460000000     
    C   -0.3880000000       -1.9840000000       -0.4800000000     
    C    1.1070000000       -2.1420000000       -0.7820000000     
    C    1.3800000000       -2.8330000000       -2.1260000000     
    C    2.8750000000       -3.0740000000       -2.4930000000     
    C    3.5400000000       -3.9980000000       -1.4600000000     
    N    2.8800000000       -3.6840000000       -3.8500000000     
    C    4.0140000000       -4.2010000000       -4.4420000000     
    C    3.8290000000       -4.5390000000       -5.8980000000     
    O    5.0860000000       -4.3670000000       -3.8730000000     
    C    3.5680000000       -1.6840000000       -2.6740000000     
    O    3.4510000000       -1.0440000000       -3.7230000000     
    N    4.2100000000       -1.1620000000       -1.5690000000     
    C    4.9190000000        0.0900000000       -1.6710000000     
    N   -3.7210000000        1.9140000000        3.4580000000     
    C   -4.7040000000        1.1130000000        2.9390000000     
    C   -5.2960000000        0.1540000000        3.9370000000     
    O   -5.1060000000        1.1630000000        1.7820000000     
    H   -0.5090000000        5.1090000000        5.3810000000     
    H   -1.7210000000        6.3610000000        4.9920000000     
    H   -0.1660000000        6.3200000000        4.1090000000     
    H   -1.5620000000        5.2080000000        2.6260000000     
    H   -4.4250000000        3.4060000000        1.1730000000     
    H   -3.3030000000        4.7180000000        1.4850000000     
    H   -4.6060000000        4.3850000000        2.6280000000     
    H   -1.1970000000        3.1990000000        1.5060000000     
    H   -1.1390000000        1.7970000000        2.5530000000     
    H   -2.6960000000        0.5760000000        1.0910000000     
    H   -2.9330000000        2.0100000000        0.0810000000     
    H   -0.5020000000        1.9870000000       -0.5060000000     
    H   -0.2500000000        0.5940000000        0.5260000000     
    H   -1.9330000000        0.7290000000       -2.0670000000     
    H   -1.4480000000       -1.5550000000       -2.3630000000     
    H   -0.8760000000       -2.9660000000       -0.4990000000     
    H   -0.5080000000       -1.6180000000        0.5460000000     
    H    1.5820000000       -1.1550000000       -0.7600000000     
    H    1.5430000000       -2.7250000000        0.0350000000     
    H    0.9200000000       -2.2340000000       -2.9230000000     
    H    0.8560000000       -3.7990000000       -2.1380000000     
    H    3.1340000000       -5.0140000000       -1.5250000000     
    H    4.6240000000       -4.0610000000       -1.5950000000     
    H    3.3970000000       -3.6500000000       -0.4340000000     
    H    2.2790000000       -3.1970000000       -4.5070000000     
    H    4.3370000000       -5.4840000000       -6.1140000000     
    H    2.7720000000       -4.6560000000       -6.1500000000     
    H    4.2590000000       -3.7410000000       -6.5080000000     
    H    4.5310000000       -1.8060000000       -0.8600000000     
    H    4.2920000000        0.8380000000       -2.1630000000     
    H    5.1780000000        0.4250000000       -0.6650000000     
    H    5.8280000000       -0.0670000000       -2.2570000000     
    H   -3.5340000000        1.8600000000        4.4590000000     
    H   -6.2370000000        0.5640000000        4.3140000000     
    H   -4.6180000000       -0.0210000000        4.7770000000     
    H   -5.4810000000       -0.8050000000        3.4460000000     


