--Link1--
%chk=conf22
#HF/6-31G* SCF=tight Test Pop=MK iop(6/33=2) iop(6/42=6) opt

remark line goes here

0   1
    C    4.7450000000        2.6230000000        3.4040000000     
    N    4.4900000000        1.4560000000        2.5970000000     
    C    4.3180000000        1.5710000000        1.2310000000     
    O    4.5180000000        2.6380000000        0.6440000000     
    C    3.9960000000        0.2490000000        0.4550000000     
    C    5.3080000000       -0.5550000000        0.3890000000     
    C    2.9010000000       -0.6000000000        1.1490000000     
    C    2.4440000000       -1.8330000000        0.3540000000     
    C    1.1710000000       -2.4230000000        0.9620000000     
    C    0.6660000000       -3.6130000000        0.1940000000     
    C   -0.2290000000       -3.5790000000       -0.8080000000     
    C   -0.8090000000       -2.3370000000       -1.4240000000     
    C   -2.0980000000       -1.8870000000       -0.7320000000     
    C   -2.5860000000       -0.5540000000       -1.3250000000     
    C   -3.7560000000        0.1300000000       -0.5590000000     
    C   -4.0150000000        1.5010000000       -1.2070000000     
    N   -4.9560000000       -0.7380000000       -0.7200000000     
    C   -6.2610000000       -0.5510000000       -0.3840000000     
    C   -6.7250000000        0.7650000000        0.1680000000     
    O   -7.0550000000       -1.4730000000       -0.5790000000     
    C   -3.4210000000        0.2460000000        0.9680000000     
    O   -4.0290000000       -0.4200000000        1.8150000000     
    N   -2.4260000000        1.0430000000        1.4460000000     
    C   -1.6100000000        2.0410000000        0.7960000000     
    N    3.6460000000        0.6600000000       -0.9240000000     
    C    2.4330000000        1.2270000000       -1.2600000000     
    C    2.4050000000        1.7980000000       -2.6540000000     
    O    1.4520000000        1.2840000000       -0.5250000000     
    H    5.5100000000        3.2480000000        2.9360000000     
    H    3.8170000000        3.1940000000        3.5000000000     
    H    5.0830000000        2.2970000000        4.3900000000     
    H    4.1440000000        0.6340000000        3.0720000000     
    H    5.6070000000       -0.9190000000        1.3780000000     
    H    5.2190000000       -1.4170000000       -0.2810000000     
    H    6.1310000000        0.0630000000        0.0090000000     
    H    2.0380000000        0.0320000000        1.3910000000     
    H    3.2650000000       -0.9590000000        2.1200000000     
    H    2.2560000000       -1.5700000000       -0.6920000000     
    H    3.2380000000       -2.5890000000        0.3530000000     
    H    1.3610000000       -2.7350000000        1.9970000000     
    H    0.3950000000       -1.6510000000        1.0210000000     
    H    1.0360000000       -4.5830000000        0.5220000000     
    H   -0.5480000000       -4.5220000000       -1.2480000000     
    H   -1.0050000000       -2.5330000000       -2.4850000000     
    H   -0.0700000000       -1.5270000000       -1.4030000000     
    H   -1.9100000000       -1.7770000000        0.3410000000     
    H   -2.8650000000       -2.6600000000       -0.8460000000     
    H   -2.8950000000       -0.7340000000       -2.3650000000     
    H   -1.7300000000        0.1240000000       -1.3870000000     
    H   -4.6020000000        1.4010000000       -2.1270000000     
    H   -3.0860000000        2.0090000000       -1.4840000000     
    H   -4.5480000000        2.1800000000       -0.5350000000     
    H   -4.7930000000       -1.7100000000       -0.9490000000     
    H   -7.6970000000        0.6250000000        0.6510000000     
    H   -6.0400000000        1.1500000000        0.9240000000     
    H   -6.8420000000        1.4850000000       -0.6450000000     
    H   -2.3710000000        1.0000000000        2.4580000000     
    H   -0.7880000000        2.3000000000        1.4680000000     
    H   -1.2040000000        1.6690000000       -0.1410000000     
    H   -2.2200000000        2.9280000000        0.6140000000     
    H    4.4260000000        1.0630000000       -1.4320000000     
    H    3.1960000000        1.3710000000       -3.2770000000     
    H    2.5340000000        2.8820000000       -2.6000000000     
    H    1.4430000000        1.5630000000       -3.1180000000     


