--Link1--
%chk=conf23
#HF/6-31G* SCF=tight Test Pop=MK iop(6/33=2) iop(6/42=6) opt

remark line goes here

0   1
    C    3.4590000000       -2.4130000000        2.5140000000     
    N    3.9050000000       -1.2130000000        1.8560000000     
    C    3.7570000000       -1.0830000000        0.4820000000     
    O    3.0450000000       -1.8380000000       -0.1750000000     
    C    4.4170000000        0.2050000000       -0.1060000000     
    C    4.6040000000        0.0790000000       -1.6230000000     
    C    3.5340000000        1.4400000000        0.2660000000     
    C    2.2930000000        1.7590000000       -0.5870000000     
    C    1.1210000000        0.7800000000       -0.5300000000     
    C    0.5770000000        0.5740000000        0.8560000000     
    C   -0.5470000000        1.1020000000        1.3660000000     
    C   -1.4800000000        2.0620000000        0.6830000000     
    C   -2.6120000000        1.3750000000       -0.0900000000     
    C   -3.5230000000        0.5150000000        0.8030000000     
    C   -4.7030000000       -0.1900000000        0.0720000000     
    C   -5.4200000000       -1.0790000000        1.1070000000     
    N   -5.5970000000        0.8400000000       -0.5080000000     
    C   -6.8990000000        0.5880000000       -0.8940000000     
    C   -7.4990000000        1.6940000000       -1.7230000000     
    O   -7.5360000000       -0.4210000000       -0.6160000000     
    C   -4.1440000000       -1.0340000000       -1.1180000000     
    O   -4.2720000000       -0.6670000000       -2.2890000000     
    N   -3.4030000000       -2.1460000000       -0.7760000000     
    C   -2.8510000000       -3.0090000000       -1.7910000000     
    N    5.7380000000        0.4280000000        0.5630000000     
    C    6.7760000000       -0.4780000000        0.4790000000     
    C    8.0950000000        0.0560000000        0.9700000000     
    O    6.6550000000       -1.6230000000        0.0630000000     
    H    4.1100000000       -3.2410000000        2.2200000000     
    H    2.4290000000       -2.6390000000        2.2250000000     
    H    3.5180000000       -2.2590000000        3.5940000000     
    H    4.7220000000       -0.7460000000        2.2300000000     
    H    3.6550000000       -0.0940000000       -2.1410000000     
    H    5.0630000000        0.9830000000       -2.0380000000     
    H    5.2510000000       -0.7650000000       -1.8840000000     
    H    4.1650000000        2.3370000000        0.1940000000     
    H    3.2430000000        1.3890000000        1.3230000000     
    H    1.9240000000        2.7430000000       -0.2640000000     
    H    2.5910000000        1.8950000000       -1.6330000000     
    H    1.4040000000       -0.1880000000       -0.9520000000     
    H    0.3330000000        1.1530000000       -1.1950000000     
    H    1.1440000000       -0.1110000000        1.4850000000     
    H   -0.8200000000        0.8260000000        2.3840000000     
    H   -0.9200000000        2.7100000000       -0.0020000000     
    H   -1.9040000000        2.7320000000        1.4410000000     
    H   -3.2020000000        2.1590000000       -0.5790000000     
    H   -2.1780000000        0.7610000000       -0.8870000000     
    H   -3.9280000000        1.1530000000        1.6010000000     
    H   -2.9060000000       -0.2480000000        1.2950000000     
    H   -6.0400000000       -0.4800000000        1.7830000000     
    H   -4.7080000000       -1.6350000000        1.7280000000     
    H   -6.0550000000       -1.8330000000        0.6300000000     
    H   -5.1200000000        1.4500000000       -1.1610000000     
    H   -8.5410000000        1.8400000000       -1.4260000000     
    H   -7.4510000000        1.4170000000       -2.7790000000     
    H   -6.9680000000        2.6390000000       -1.5730000000     
    H   -3.4480000000       -2.5040000000        0.1680000000     
    H   -2.0930000000       -3.6470000000       -1.3310000000     
    H   -2.4020000000       -2.4140000000       -2.5910000000     
    H   -3.6550000000       -3.6250000000       -2.2020000000     
    H    6.0250000000        1.3960000000        0.6450000000     
    H    8.5790000000       -0.7030000000        1.5920000000     
    H    7.9650000000        0.9580000000        1.5750000000     
    H    8.7300000000        0.2890000000        0.1110000000     


