--Link1--
%chk=conf3
#HF/6-31G* SCF=tight Test Pop=MK iop(6/33=2) iop(6/42=6) opt

remark line goes here

0   1
    C   -7.4090000000       -1.8810000000       -2.6530000000     
    N   -6.5070000000       -1.8630000000       -1.5280000000     
    C   -5.9810000000       -0.6670000000       -1.0770000000     
    O   -6.1270000000        0.3850000000       -1.7040000000     
    C   -5.0590000000       -0.7500000000        0.1850000000     
    C   -5.6130000000       -1.7000000000        1.2600000000     
    C   -3.6780000000       -1.2550000000       -0.3150000000     
    C   -2.5990000000       -1.3370000000        0.7740000000     
    C   -1.2590000000       -1.7900000000        0.1880000000     
    C   -0.2050000000       -1.8880000000        1.2540000000     
    C    0.8510000000       -1.0770000000        1.4230000000     
    C    1.1850000000        0.1500000000        0.6200000000     
    C    2.2080000000       -0.1120000000       -0.4930000000     
    C    3.6150000000       -0.5050000000       -0.0070000000     
    C    4.6820000000        0.6340000000        0.0340000000     
    C    4.1750000000        1.7880000000        0.9130000000     
    N    5.9210000000        0.0180000000        0.5810000000     
    C    7.0650000000        0.7010000000        0.9210000000     
    C    8.1880000000       -0.1850000000        1.3890000000     
    O    7.1940000000        1.9170000000        0.8220000000     
    C    4.9950000000        1.1040000000       -1.4270000000     
    O    4.6360000000        0.4730000000       -2.4210000000     
    N    5.7690000000        2.2430000000       -1.5230000000     
    C    6.2630000000        2.6980000000       -2.7960000000     
    N   -4.9080000000        0.6390000000        0.6690000000     
    C   -5.8860000000        1.2950000000        1.3890000000     
    C   -5.6300000000        2.7710000000        1.5420000000     
    O   -6.8810000000        0.7610000000        1.8650000000     
    H   -7.5340000000       -2.9150000000       -2.9820000000     
    H   -8.3730000000       -1.4720000000       -2.3370000000     
    H   -7.0070000000       -1.2750000000       -3.4700000000     
    H   -6.5670000000       -2.6370000000       -0.8800000000     
    H   -5.1570000000       -1.5110000000        2.2380000000     
    H   -6.6980000000       -1.6060000000        1.3710000000     
    H   -5.4200000000       -2.7490000000        1.0040000000     
    H   -3.7920000000       -2.2460000000       -0.7750000000     
    H   -3.3190000000       -0.5920000000       -1.1150000000     
    H   -2.4740000000       -0.3570000000        1.2520000000     
    H   -2.9080000000       -2.0400000000        1.5560000000     
    H   -0.9540000000       -1.1120000000       -0.6160000000     
    H   -1.3720000000       -2.7790000000       -0.2730000000     
    H   -0.3170000000       -2.7260000000        1.9420000000     
    H    1.5330000000       -1.3010000000        2.2430000000     
    H    1.5470000000        0.9220000000        1.3060000000     
    H    0.2760000000        0.5670000000        0.1700000000     
    H    2.2570000000        0.7700000000       -1.1420000000     
    H    1.8250000000       -0.9250000000       -1.1230000000     
    H    3.9820000000       -1.2960000000       -0.6780000000     
    H    3.5580000000       -0.9800000000        0.9810000000     
    H    4.9100000000        2.5850000000        1.0500000000     
    H    3.2960000000        2.2690000000        0.4700000000     
    H    3.9090000000        1.4280000000        1.9130000000     
    H    6.0390000000       -0.9680000000        0.3810000000     
    H    8.8830000000       -0.3500000000        0.5610000000     
    H    7.8140000000       -1.1490000000        1.7440000000     
    H    8.7100000000        0.3040000000        2.2170000000     
    H    6.3150000000        2.4850000000       -0.6940000000     
    H    6.6430000000        3.7160000000       -2.6780000000     
    H    7.0720000000        2.0350000000       -3.1160000000     
    H    5.4620000000        2.6810000000       -3.5400000000     
    H   -4.4310000000        1.2420000000        0.0080000000     
    H   -5.8940000000        3.0780000000        2.5580000000     
    H   -6.2430000000        3.3180000000        0.8210000000     
    H   -4.5760000000        3.0140000000        1.3770000000     


