--Link1--
%chk=conf4
#HF/6-31G* SCF=tight Test Pop=MK iop(6/33=2) iop(6/42=6) opt

remark line goes here

0   1
    C   -5.4360000000       -3.4150000000        1.1990000000     
    N   -4.6150000000       -2.2290000000        1.1700000000     
    C   -5.1550000000       -1.0240000000        0.7630000000     
    O   -6.3680000000       -0.8860000000        0.5820000000     
    C   -4.1690000000        0.2010000000        0.7120000000     
    C   -4.0580000000        0.6700000000        2.1750000000     
    C   -2.7730000000       -0.1810000000        0.1430000000     
    C   -1.8620000000        0.9340000000       -0.4040000000     
    C   -1.3320000000        1.9760000000        0.5840000000     
    C   -0.5070000000        1.3820000000        1.6920000000     
    C    0.8150000000        1.5230000000        1.8810000000     
    C    1.7710000000        2.3280000000        1.0460000000     
    C    2.3790000000        1.5410000000       -0.1200000000     
    C    3.2120000000        0.3330000000        0.3350000000     
    C    3.9590000000       -0.3990000000       -0.8140000000     
    C    2.9540000000       -0.9060000000       -1.8610000000     
    N    4.9670000000        0.5220000000       -1.3840000000     
    C    5.6410000000        0.2600000000       -2.5590000000     
    C    6.7970000000        1.1930000000       -2.8080000000     
    O    5.3610000000       -0.6400000000       -3.3410000000     
    C    4.7700000000       -1.5570000000       -0.1420000000     
    O    5.9470000000       -1.4100000000        0.1960000000     
    N    4.0560000000       -2.6970000000        0.1770000000     
    C    4.7300000000       -3.8380000000        0.7470000000     
    N   -4.8670000000        1.2450000000       -0.0640000000     
    C   -5.0670000000        1.1270000000       -1.4270000000     
    C   -6.0190000000        2.1500000000       -1.9880000000     
    O   -4.5420000000        0.2750000000       -2.1350000000     
    H   -5.6330000000       -3.7330000000        0.1720000000     
    H   -4.8960000000       -4.1990000000        1.7340000000     
    H   -6.3840000000       -3.2050000000        1.7040000000     
    H   -3.6200000000       -2.3690000000        1.0680000000     
    H   -3.5930000000        1.6540000000        2.2640000000     
    H   -5.0500000000        0.7590000000        2.6360000000     
    H   -3.4870000000       -0.0390000000        2.7840000000     
    H   -2.2120000000       -0.7500000000        0.8960000000     
    H   -2.9160000000       -0.8950000000       -0.6800000000     
    H   -0.9990000000        0.4450000000       -0.8750000000     
    H   -2.3680000000        1.4650000000       -1.2170000000     
    H   -0.7430000000        2.7010000000        0.0110000000     
    H   -2.1540000000        2.5550000000        1.0110000000     
    H   -1.0490000000        0.7770000000        2.4160000000     
    H    1.2610000000        1.0170000000        2.7370000000     
    H    2.5730000000        2.6970000000        1.6970000000     
    H    1.2780000000        3.2250000000        0.6560000000     
    H    3.0100000000        2.2270000000       -0.6970000000     
    H    1.5750000000        1.2120000000       -0.7900000000     
    H    3.9410000000        0.6700000000        1.0850000000     
    H    2.5580000000       -0.3820000000        0.8520000000     
    H    2.0530000000       -1.3130000000       -1.3860000000     
    H    3.3700000000       -1.7130000000       -2.4730000000     
    H    2.6370000000       -0.1030000000       -2.5350000000     
    H    5.5540000000        0.9560000000       -0.6800000000     
    H    6.7010000000        2.1140000000       -2.2250000000     
    H    6.8180000000        1.4630000000       -3.8680000000     
    H    7.7290000000        0.6910000000       -2.5370000000     
    H    3.1930000000       -2.8760000000       -0.3180000000     
    H    5.3300000000       -4.3170000000       -0.0320000000     
    H    5.3810000000       -3.5220000000        1.5660000000     
    H    3.9770000000       -4.5360000000        1.1180000000     
    H   -5.6670000000        1.6420000000        0.4160000000     
    H   -6.1310000000        3.0040000000       -1.3130000000     
    H   -6.9950000000        1.6840000000       -2.1430000000     
    H   -5.6290000000        2.5180000000       -2.9410000000     


