--Link1--
%chk=conf5
#HF/6-31G* SCF=tight Test Pop=MK iop(6/33=2) iop(6/42=6) opt

remark line goes here

0   1
    C   -6.7380000000        1.2990000000       -3.1340000000     
    N   -5.7270000000        0.5430000000       -2.4370000000     
    C   -6.0740000000       -0.2680000000       -1.3740000000     
    O   -7.2540000000       -0.4960000000       -1.0940000000     
    C   -4.9010000000       -1.0120000000       -0.6460000000     
    C   -4.5380000000       -2.2170000000       -1.5350000000     
    C   -3.6460000000       -0.1220000000       -0.4430000000     
    C   -2.5430000000       -0.7530000000        0.4230000000     
    C   -1.3950000000        0.2140000000        0.7340000000     
    C   -0.6470000000        0.6680000000       -0.4890000000     
    C    0.5190000000        0.1820000000       -0.9450000000     
    C    1.2980000000       -0.9670000000       -0.3690000000     
    C    2.4680000000       -0.5240000000        0.5170000000     
    C    3.5400000000        0.2680000000       -0.2470000000     
    C    4.8060000000        0.6050000000        0.5890000000     
    C    4.4200000000        1.4380000000        1.8220000000     
    N    5.4900000000       -0.6600000000        0.9410000000     
    C    6.5090000000       -0.7290000000        1.8690000000     
    C    7.2320000000       -2.0500000000        1.8680000000     
    O    6.8260000000        0.1780000000        2.6290000000     
    C    5.7790000000        1.3650000000       -0.3710000000     
    O    6.6690000000        0.7760000000       -0.9900000000     
    N    5.4970000000        2.7000000000       -0.5950000000     
    C    6.3690000000        3.4980000000       -1.4210000000     
    N   -5.4790000000       -1.5330000000        0.6130000000     
    C   -5.7500000000       -0.7230000000        1.6980000000     
    C   -6.5850000000       -1.3970000000        2.7560000000     
    O   -5.3690000000        0.4350000000        1.8190000000     
    H   -6.3040000000        1.6950000000       -4.0540000000     
    H   -7.0660000000        2.1220000000       -2.4930000000     
    H   -7.5930000000        0.6590000000       -3.3700000000     
    H   -4.7800000000        0.8900000000       -2.4940000000     
    H   -5.4300000000       -2.8010000000       -1.7920000000     
    H   -4.0790000000       -1.8970000000       -2.4770000000     
    H   -3.8460000000       -2.8980000000       -1.0280000000     
    H   -3.2100000000        0.1080000000       -1.4230000000     
    H   -3.9320000000        0.8500000000       -0.0250000000     
    H   -2.9590000000       -1.0900000000        1.3780000000     
    H   -2.1410000000       -1.6420000000       -0.0760000000     
    H   -1.7860000000        1.0990000000        1.2500000000     
    H   -0.7130000000       -0.2640000000        1.4460000000     
    H   -1.0970000000        1.4990000000       -1.0300000000     
    H    0.9450000000        0.6380000000       -1.8370000000     
    H    1.6730000000       -1.5820000000       -1.1960000000     
    H    0.6430000000       -1.6250000000        0.2130000000     
    H    2.9180000000       -1.4230000000        0.9550000000     
    H    2.0810000000        0.0740000000        1.3500000000     
    H    3.1000000000        1.2000000000       -0.6240000000     
    H    3.8360000000       -0.3070000000       -1.1360000000     
    H    3.6550000000        2.1850000000        1.5770000000     
    H    4.0190000000        0.8080000000        2.6240000000     
    H    5.2730000000        1.9940000000        2.2250000000     
    H    5.6440000000       -1.2640000000        0.1410000000     
    H    8.1710000000       -1.9440000000        1.3190000000     
    H    6.6290000000       -2.8360000000        1.4030000000     
    H    7.4390000000       -2.3460000000        2.9000000000     
    H    4.9280000000        3.1910000000        0.0810000000     
    H    6.6030000000        2.9670000000       -2.3470000000     
    H    7.2920000000        3.6960000000       -0.8700000000     
    H    5.8640000000        4.4400000000       -1.6490000000     
    H   -6.1900000000       -2.2400000000        0.4630000000     
    H   -7.6210000000       -1.0610000000        2.6620000000     
    H   -6.1980000000       -1.1290000000        3.7430000000     
    H   -6.5490000000       -2.4860000000        2.6610000000     


