--Link1--
%chk=conf6
#HF/6-31G* SCF=tight Test Pop=MK iop(6/33=2) iop(6/42=6) opt

remark line goes here

0   1
    C    2.2700000000       -4.1240000000        0.2550000000     
    N    1.9810000000       -2.7890000000       -0.2050000000     
    C    2.9880000000       -1.9630000000       -0.6620000000     
    O    4.1530000000       -2.3500000000       -0.7820000000     
    C    2.5750000000       -0.5010000000       -1.0290000000     
    C    1.5430000000       -0.5730000000       -2.1690000000     
    C    1.9670000000        0.2170000000        0.1980000000     
    C    2.9180000000        0.3470000000        1.3990000000     
    C    2.2050000000        0.8160000000        2.6720000000     
    C    1.7520000000        2.2490000000        2.6330000000     
    C    0.5180000000        2.7060000000        2.3620000000     
    C   -0.6710000000        1.8900000000        1.9340000000     
    C   -1.2450000000        2.4240000000        0.6190000000     
    C   -1.9500000000        1.3880000000       -0.2710000000     
    C   -3.2100000000        0.6450000000        0.2670000000     
    C   -4.1590000000        1.6000000000        1.0000000000     
    N   -3.8890000000        0.0630000000       -0.9340000000     
    C   -5.0330000000       -0.7030000000       -0.8380000000     
    C   -5.7320000000       -0.9300000000       -2.1520000000     
    O   -5.4470000000       -1.1850000000        0.2080000000     
    C   -2.7370000000       -0.5110000000        1.2060000000     
    O   -2.6760000000       -0.4050000000        2.4290000000     
    N   -2.2140000000       -1.6090000000        0.5310000000     
    C   -1.8920000000       -2.8000000000        1.2730000000     
    N    3.8110000000        0.1510000000       -1.4910000000     
    C    3.9080000000        1.4380000000       -1.9520000000     
    C    5.3010000000        1.8450000000       -2.3520000000     
    O    2.9570000000        2.2050000000       -2.0560000000     
    H    2.9700000000       -4.6170000000       -0.4250000000     
    H    1.3350000000       -4.6860000000        0.3000000000     
    H    2.7130000000       -4.0610000000        1.2520000000     
    H    1.0900000000       -2.3840000000        0.0540000000     
    H    1.2280000000        0.4210000000       -2.5010000000     
    H    1.9580000000       -1.0950000000       -3.0390000000     
    H    0.6380000000       -1.1120000000       -1.8640000000     
    H    1.6310000000        1.2180000000       -0.0940000000     
    H    1.0680000000       -0.3220000000        0.5200000000     
    H    3.3740000000       -0.6260000000        1.6160000000     
    H    3.7380000000        1.0340000000        1.1560000000     
    H    1.3730000000        0.1420000000        2.9060000000     
    H    2.9010000000        0.7180000000        3.5150000000     
    H    2.5170000000        2.9810000000        2.8890000000     
    H    0.3530000000        3.7820000000        2.4230000000     
    H   -1.4310000000        1.9460000000        2.7210000000     
    H   -0.3970000000        0.8400000000        1.8220000000     
    H   -0.4340000000        2.8510000000        0.0130000000     
    H   -1.9230000000        3.2600000000        0.8280000000     
    H   -1.2020000000        0.6530000000       -0.6010000000     
    H   -2.2340000000        1.9310000000       -1.1840000000     
    H   -5.0570000000        1.0840000000        1.3570000000     
    H   -3.6930000000        2.0470000000        1.8840000000     
    H   -4.4880000000        2.4100000000        0.3400000000     
    H   -3.8240000000        0.6210000000       -1.7770000000     
    H   -6.0080000000       -1.9850000000       -2.2330000000     
    H   -6.6310000000       -0.3090000000       -2.1910000000     
    H   -5.0890000000       -0.6810000000       -3.0010000000     
    H   -2.6060000000       -1.7280000000       -0.3950000000     
    H   -1.3990000000       -3.5060000000        0.5990000000     
    H   -1.2260000000       -2.5540000000        2.1040000000     
    H   -2.8140000000       -3.2390000000        1.6630000000     
    H    4.6430000000       -0.4350000000       -1.4580000000     
    H    5.3540000000        1.9170000000       -3.4410000000     
    H    6.0490000000        1.1260000000       -2.0070000000     
    H    5.5300000000        2.8170000000       -1.9050000000     


