--Link1--
%chk=conf7
#HF/6-31G* SCF=tight Test Pop=MK iop(6/33=2) iop(6/42=6) opt

remark line goes here

0   1
    C    0.4040000000        2.3780000000        2.7780000000     
    N    1.5710000000        1.6360000000        2.3780000000     
    C    1.4670000000        0.4300000000        1.6990000000     
    O    0.3940000000       -0.1530000000        1.5670000000     
    C    2.8570000000       -0.1860000000        1.3250000000     
    C    3.4390000000       -0.7390000000        2.6420000000     
    C    2.7690000000       -1.2580000000        0.1970000000     
    C    2.6320000000       -2.7410000000        0.5910000000     
    C    1.1990000000       -3.2830000000        0.6340000000     
    C    0.6440000000       -3.5390000000       -0.7410000000     
    C   -0.5930000000       -3.2810000000       -1.1920000000     
    C   -1.7360000000       -2.6630000000       -0.4390000000     
    C   -2.4250000000       -1.5380000000       -1.2240000000     
    C   -1.5030000000       -0.3440000000       -1.5260000000     
    C   -2.0780000000        1.0790000000       -1.2910000000     
    C   -0.8740000000        2.0460000000       -1.1890000000     
    N   -2.9100000000        1.6100000000       -2.4010000000     
    C   -3.9780000000        0.9710000000       -2.9870000000     
    C   -4.7680000000        1.8680000000       -3.9060000000     
    O   -4.3040000000       -0.1940000000       -2.8110000000     
    C   -2.8760000000        1.2420000000        0.0400000000     
    O   -3.9010000000        1.9250000000        0.1070000000     
    N   -2.3200000000        0.6590000000        1.1590000000     
    C   -2.9690000000        0.7390000000        2.4410000000     
    N    3.7760000000        0.9140000000        0.8980000000     
    C    3.5370000000        1.6610000000       -0.2380000000     
    C    4.6940000000        2.5250000000       -0.6620000000     
    O    2.4770000000        1.6450000000       -0.8520000000     
    H   -0.2820000000        1.7220000000        3.3180000000     
    H    0.7200000000        3.1980000000        3.4270000000     
    H   -0.0890000000        2.7770000000        1.8890000000     
    H    2.4250000000        2.1510000000        2.1990000000     
    H    2.7540000000       -1.4440000000        3.1240000000     
    H    3.6230000000        0.0640000000        3.3670000000     
    H    4.4010000000       -1.2360000000        2.4730000000     
    H    1.9840000000       -0.9870000000       -0.5190000000     
    H    3.7080000000       -1.2020000000       -0.3740000000     
    H    3.1200000000       -2.9530000000        1.5450000000     
    H    3.1990000000       -3.3320000000       -0.1430000000     
    H    1.2250000000       -4.2500000000        1.1510000000     
    H    0.5660000000       -2.6280000000        1.2340000000     
    H    1.3250000000       -4.0320000000       -1.4350000000     
    H   -0.8240000000       -3.5730000000       -2.2170000000     
    H   -2.4750000000       -3.4500000000       -0.2480000000     
    H   -1.4280000000       -2.2820000000        0.5380000000     
    H   -2.7880000000       -1.9570000000       -2.1700000000     
    H   -3.3090000000       -1.2310000000       -0.6560000000     
    H   -1.1590000000       -0.4240000000       -2.5660000000     
    H   -0.5990000000       -0.4510000000       -0.9140000000     
    H   -0.1970000000        1.7690000000       -0.3760000000     
    H   -0.2980000000        2.0580000000       -2.1220000000     
    H   -1.2030000000        3.0740000000       -0.9930000000     
    H   -3.0460000000        2.6110000000       -2.3370000000     
    H   -5.6320000000        2.2630000000       -3.3670000000     
    H   -4.1590000000        2.6990000000       -4.2740000000     
    H   -5.1060000000        1.2880000000       -4.7700000000     
    H   -1.3790000000        0.2600000000        1.1230000000     
    H   -2.4930000000        0.0270000000        3.1190000000     
    H   -4.0310000000        0.5010000000        2.3370000000     
    H   -2.8610000000        1.7550000000        2.8290000000     
    H    4.7540000000        0.7750000000        1.1240000000     
    H    4.3230000000        3.5230000000       -0.9090000000     
    H    5.1700000000        2.0800000000       -1.5400000000     
    H    5.4360000000        2.6240000000        0.1360000000     


