--Link1--
%chk=conf8
#HF/6-31G* SCF=tight Test Pop=MK iop(6/33=2) iop(6/42=6) opt

remark line goes here

0   1
    C   -7.7840000000        0.3830000000        1.5540000000     
    N   -6.5910000000        0.7590000000        0.8400000000     
    C   -5.3470000000        0.7160000000        1.4450000000     
    O   -5.2070000000        0.5200000000        2.6500000000     
    C   -4.1630000000        1.0850000000        0.4890000000     
    C   -4.2320000000        2.6230000000        0.3530000000     
    C   -2.8000000000        0.6480000000        1.0930000000     
    C   -1.5190000000        1.2900000000        0.5310000000     
    C   -1.1450000000        0.9430000000       -0.9110000000     
    C   -0.8490000000       -0.5150000000       -1.1220000000     
    C    0.3430000000       -1.1180000000       -0.9830000000     
    C    1.6290000000       -0.4810000000       -0.5330000000     
    C    2.6580000000       -0.4600000000       -1.6630000000     
    C    3.9140000000        0.3830000000       -1.3760000000     
    C    4.8440000000       -0.0910000000       -0.2310000000     
    C    6.1540000000        0.7180000000       -0.2430000000     
    N    4.2150000000        0.0080000000        1.0980000000     
    C    3.7620000000        1.1590000000        1.6870000000     
    C    3.1640000000        0.9540000000        3.0530000000     
    O    3.8000000000        2.2650000000        1.1580000000     
    C    5.2050000000       -1.6020000000       -0.3990000000     
    O    4.9550000000       -2.4220000000        0.4870000000     
    N    5.8090000000       -1.9590000000       -1.5860000000     
    C    6.2440000000       -3.3130000000       -1.8220000000     
    N   -4.4230000000        0.5060000000       -0.8500000000     
    C   -4.5010000000       -0.7970000000       -1.2400000000     
    C   -4.7550000000       -1.8930000000       -0.2410000000     
    O   -4.4310000000       -1.0440000000       -2.4440000000     
    H   -8.6510000000        0.7420000000        0.9960000000     
    H   -7.8160000000       -0.7070000000        1.6300000000     
    H   -7.7780000000        0.8170000000        2.5570000000     
    H   -6.6020000000        0.7450000000       -0.1740000000     
    H   -5.2240000000        2.9570000000        0.0240000000     
    H   -4.0270000000        3.1130000000        1.3120000000     
    H   -3.5190000000        2.9990000000       -0.3880000000     
    H   -2.8060000000        0.8940000000        2.1630000000     
    H   -2.6920000000       -0.4410000000        1.0550000000     
    H   -1.5780000000        2.3800000000        0.6290000000     
    H   -0.6890000000        0.9910000000        1.1850000000     
    H   -0.2730000000        1.5410000000       -1.2000000000     
    H   -1.9350000000        1.2500000000       -1.6030000000     
    H   -1.6850000000       -1.1270000000       -1.4540000000     
    H    0.4010000000       -2.1850000000       -1.1960000000     
    H    1.4610000000        0.5350000000       -0.1620000000     
    H    2.0020000000       -1.0710000000        0.3100000000     
    H    2.1870000000       -0.0410000000       -2.5630000000     
    H    2.9430000000       -1.4860000000       -1.9250000000     
    H    3.6010000000        1.4190000000       -1.2030000000     
    H    4.4920000000        0.4080000000       -2.3100000000     
    H    5.9750000000        1.7860000000       -0.0830000000     
    H    6.6870000000        0.6210000000       -1.1950000000     
    H    6.8330000000        0.3750000000        0.5470000000     
    H    4.1600000000       -0.8700000000        1.6110000000     
    H    3.5060000000        1.7530000000        3.7170000000     
    H    2.0740000000        0.9820000000        2.9730000000     
    H    3.4660000000       -0.0030000000        3.4870000000     
    H    6.1190000000       -1.2420000000       -2.2270000000     
    H    5.4910000000       -4.0220000000       -1.4670000000     
    H    6.4030000000       -3.4450000000       -2.8950000000     
    H    7.1820000000       -3.4780000000       -1.2850000000     
    H   -4.1910000000        1.0930000000       -1.6440000000     
    H   -5.8240000000       -2.1200000000       -0.2300000000     
    H   -4.4370000000       -1.6460000000        0.7690000000     
    H   -4.2010000000       -2.7850000000       -0.5510000000     


