--Link1-- 
%chk=CHI1_-80
%NoSave 
#SP HF/6-31G*  Geom=(ModRedundant)  

paramfit run
  
0    1 
C-CT--0.3208    0.000000    0.000000    0.000000
N-N--0.5622    1.448187    0.000000    0.000000
C-C-0.8053    2.123200    0.475920    1.072365
O-O--0.6151    1.590179    0.696732    2.124447
C-CX-0.0839    3.650505    0.594143    0.921539
C-CU--0.3230    4.198902    1.549248    1.986845
C-CU--0.0657    4.307751    -0.809116    1.023981
C-CU--0.0109    4.530986    -1.429642    2.414933
C-CU-0.0816    3.340084    -2.152590    3.075036
C-CM--0.2354    2.763555    -3.273786    2.242683
C-CM--0.2653    3.007049    -4.569406    2.355984
C-CU-0.1214    3.923223    -5.248320    3.345658
C-CU--0.0354    3.196204    -5.920486    4.524302
C-CU--0.0984    2.235469    -7.028837    4.073235
C-CU-0.1300    1.572237    -7.906858    5.165869
C-CU--0.3561    0.620247    -8.886417    4.460438
N-N--0.7186    2.614370    -8.655041    5.855588
C-C-0.8537    2.340371    -9.403821    6.963428
C-CT--0.3868    3.549306    -9.802268    7.778609
O-O--0.6323    1.226900    -9.725546    7.272970
C-C-0.7903    0.883322    -6.978407    6.191587
O-O--0.6136    1.518295    -6.484948    7.084468
N-N--0.5650    -0.414798    -6.671817    5.979760
C-CT--0.3231    -1.134455    -5.848412    6.929654
N-N--0.7191    3.997412    1.070275    -0.425452
C-C-0.8539    3.587019    2.267163    -0.934086
C-CT--0.3903    4.328148    2.727659    -2.172145
O-O--0.6290    2.697134    2.905425    -0.447397
H-H1-0.1459    -0.403259    1.006147    0.000000
H-H1-0.1459    -0.364960    -0.516002    0.875939
H-H1-0.1459    -0.345658    -0.522086    -0.883346
H-H-0.3572    1.904244    0.070913    -0.879357
H-HC-0.0997    3.932135    1.221760    2.980082
H-HC-0.0997    5.280920    1.595925    1.907500
H-HC-0.0997    3.792711    2.540594    1.848395
H-HC-0.0347    5.285339    -0.709426    0.557500
H-HC-0.0347    3.744064    -1.499276    0.404129
H-HC-0.0243    5.331148    -2.155440    2.302789
H-HC-0.0243    4.901970    -0.676268    3.102081
H-HC-0.0171    2.555877    -1.442850    3.304495
H-HC-0.0171    3.686395    -2.534544    4.028983
H-HA-0.1313    2.072447    -2.966238    1.474635
H-HA-0.1359    2.496452    -5.228709    1.671607
H-HC-0.0092    4.635413    -4.537754    3.747338
H-HC-0.0092    4.509307    -5.998568    2.816292
H-HC-0.0318    3.952342    -6.314859    5.197427
H-HC-0.0318    2.658496    -5.169396    5.087830
H-HC-0.0435    2.757918    -7.709345    3.404288
H-HC-0.0435    1.435472    -6.579887    3.496348
H-HC-0.1066    1.207168    -9.557517    3.844216
H-HC-0.1066    -0.068231    -8.362537    3.805512
H-HC-0.1066    0.062669    -9.480574    5.168833
H-H-0.3529    3.513989    -8.231499    5.852514
H-HC-0.1047    3.300848    -10.662124    8.381914
H-HC-0.1047    3.809601    -8.978595    8.436586
H-HC-0.1047    4.407142    -10.026359    7.153883
H-H-0.3615    -0.952644    -7.269188    5.397368
H-H1-0.1469    -2.110307    -5.621741    6.520689
H-H1-0.1469    -0.597625    -4.925433    7.092596
H-H1-0.1469    -1.255244    -6.348110    7.885408
H-H-0.3570    4.828120    0.684785    -0.816437
H-HC-0.1060    3.710173    3.434604    -2.706288
H-HC-0.1060    4.588171    1.902533    -2.825678
H-HC-0.1060    5.244771    3.226201    -1.873716

D * 5 7 * F
