--Link1-- 
%chk=CHI1_110
%NoSave 
#SP HF/6-31G*  Geom=(ModRedundant)  

paramfit run
  
0    1 
C-CT--0.3208    0.000000    0.000000    0.000000
N-N--0.5622    1.448187    0.000000    0.000000
C-C-0.8053    2.123200    0.475920    1.072365
O-O--0.6151    1.590179    0.696732    2.124447
C-CX-0.0839    3.650505    0.594143    0.921539
C-CU--0.3230    4.198902    1.549248    1.986845
C-CU--0.0657    4.307751    -0.809116    1.023981
C-CU--0.0109    4.926519    -1.438019    -0.237462
C-CU-0.0816    6.356575    -1.009672    -0.622294
C-CM--0.2354    7.380860    -1.241041    0.463793
C-CM--0.2653    8.220306    -2.257542    0.576985
C-CU-0.1214    8.361469    -3.439508    -0.351876
C-CU--0.0354    9.571746    -3.359542    -1.299716
C-CU--0.0984    10.909160    -3.303795    -0.549296
C-CU-0.1300    12.214933    -3.400014    -1.380166
C-CU--0.3561    13.396550    -3.257713    -0.407035
N-N--0.7186    12.264928    -4.709634    -2.015719
C-C-0.8537    13.232370    -5.024269    -2.925729
C-CT--0.3868    12.942574    -6.245660    -3.767765
O-O--0.6323    14.239309    -4.384757    -3.053169
C-C-0.7903    12.172127    -2.324817    -2.489600
O-O--0.6136    11.593217    -2.540333    -3.520301
N-N--0.5650    12.714828    -1.120156    -2.209869
C-CT--0.3231    12.753800    -0.084666    -3.222017
N-N--0.7191    3.997412    1.070275    -0.425452
C-C-0.8539    3.587019    2.267163    -0.934086
C-CT--0.3903    4.328148    2.727659    -2.172145
O-O--0.6290    2.697134    2.905425    -0.447397
H-H1-0.1459    -0.403259    1.006147    0.000000
H-H1-0.1459    -0.364960    -0.516002    0.875939
H-H1-0.1459    -0.345658    -0.522086    -0.883346
H-H-0.3572    1.904244    0.070913    -0.879357
H-HC-0.0997    3.932135    1.221760    2.980082
H-HC-0.0997    5.280920    1.595925    1.907500
H-HC-0.0997    3.792711    2.540594    1.848395
H-HC-0.0347    3.518994    -1.478072    1.361001
H-HC-0.0347    5.046828    -0.785835    1.818653
H-HC-0.0243    4.941791    -2.511024    -0.069993
H-HC-0.0243    4.275736    -1.275641    -1.090391
H-HC-0.0171    6.368177    0.035572    -0.902821
H-HC-0.0171    6.626747    -1.562127    -1.515398
H-HA-0.1313    7.422762    -0.478555    1.224696
H-HA-0.1359    8.889206    -2.252655    1.423337
H-HC-0.0092    7.467361    -3.554460    -0.952561
H-HC-0.0092    8.441148    -4.344408    0.249290
H-HC-0.0318    9.533679    -4.223088    -1.957905
H-HC-0.0318    9.468248    -2.492911    -1.939302
H-HC-0.0435    10.947108    -4.109064    0.181207
H-HC-0.0435    10.954458    -2.376067    0.008931
H-HC-0.1066    13.398089    -4.109041    0.263652
H-HC-0.1066    13.299083    -2.364771    0.201682
H-HC-0.1066    14.342033    -3.237628    -0.927992
H-H-0.3529    11.381516    -5.133364    -2.185266
H-HC-0.1047    13.869858    -6.627988    -4.166550
H-HC-0.1047    12.302695    -5.951988    -4.594468
H-HC-0.1047    12.437637    -7.021125    -3.202014
H-H-0.3615    13.376227    -1.059466    -1.472186
H-H1-0.1469    13.111593    0.829702    -2.767226
H-H1-0.1469    11.760551    0.081260    -3.612596
H-H1-0.1469    13.406322    -0.352160    -4.046891
H-H-0.3570    4.828120    0.684785    -0.816437
H-HC-0.1060    3.710173    3.434604    -2.706288
H-HC-0.1060    4.588171    1.902533    -2.825678
H-HC-0.1060    5.244771    3.226201    -1.873716

D * 5 7 * F
