--Link1-- 
%chk=CHI1_130
%NoSave 
#SP HF/6-31G*  Geom=(ModRedundant)  

paramfit run
  
0    1 
C-CT--0.3208    0.000000    0.000000    0.000000
N-N--0.5622    1.448187    0.000000    0.000000
C-C-0.8053    2.123200    0.475920    1.072365
O-O--0.6151    1.590179    0.696732    2.124447
C-CX-0.0839    3.650505    0.594143    0.921539
C-CU--0.3230    4.198902    1.549248    1.986845
C-CU--0.0657    4.307751    -0.809116    1.023981
C-CU--0.0109    5.312314    -1.244239    -0.058217
C-CU-0.0816    6.770318    -0.764260    0.084897
C-CM--0.2354    7.420619    -1.154701    1.391397
C-CM--0.2653    8.230095    -2.177168    1.615154
C-CU-0.1214    8.703704    -3.208332    0.619088
C-CU--0.0354    10.141757    -2.989248    0.115529
C-CU--0.0984    11.179761    -3.046112    1.244347
C-CU-0.1300    12.680668    -3.018664    0.855540
C-CU--0.3561    13.498182    -3.022892    2.157501
N-N--0.7186    12.983292    -4.219535    0.088821
C-C-0.8537    14.196907    -4.396177    -0.510338
C-CT--0.3868    14.236003    -5.478994    -1.564275
O-O--0.6323    15.163991    -3.745341    -0.226958
C-C-0.7903    12.931933    -1.790761    -0.048807
O-O--0.6136    12.708324    -1.850700    -1.227932
N-N--0.5650    13.306822    -0.641199    0.552813
C-CT--0.3231    13.607726    0.532963    -0.240283
N-N--0.7191    3.997412    1.070275    -0.425452
C-C-0.8539    3.587019    2.267163    -0.934086
C-CT--0.3903    4.328148    2.727659    -2.172145
O-O--0.6290    2.697134    2.905425    -0.447397
H-H1-0.1459    -0.403259    1.006147    0.000000
H-H1-0.1459    -0.364960    -0.516002    0.875939
H-H1-0.1459    -0.345658    -0.522086    -0.883346
H-H-0.3572    1.904244    0.070913    -0.879357
H-HC-0.0997    3.932135    1.221760    2.980082
H-HC-0.0997    5.280920    1.595925    1.907500
H-HC-0.0997    3.792711    2.540594    1.848395
H-HC-0.0347    3.484972    -1.520270    1.001239
H-HC-0.0347    4.764918    -0.904351    2.003884
H-HC-0.0243    5.324311    -2.330223    -0.047522
H-HC-0.0243    4.948505    -0.956801    -1.039236
H-HC-0.0171    6.819881    0.311028    -0.027636
H-HC-0.0171    7.326837    -1.178248    -0.748611
H-HA-0.1313    7.191777    -0.513551    2.227263
H-HA-0.1359    8.605513    -2.298225    2.619230
H-HC-0.0092    8.043737    -3.232453    -0.239591
H-HC-0.0092    8.635944    -4.192441    1.081183
H-HC-0.0318    10.347283    -3.745579    -0.636864
H-HC-0.0318    10.200432    -2.037274    -0.395482
H-HC-0.0435    11.028035    -3.950858    1.829109
H-HC-0.0435    11.008904    -2.211483    1.914087
H-HC-0.1066    13.332338    -3.964295    2.668224
H-HC-0.1066    13.177697    -2.230083    2.825426
H-HC-0.1066    14.556071    -2.926221    1.964459
H-H-0.3529    12.215059    -4.612982    -0.404870
H-HC-0.1047    15.257402    -5.798398    -1.704939
H-HC-0.1047    13.868508    -5.065611    -2.498719
H-HC-0.1047    13.617547    -6.329553    -1.298860
H-H-0.3615    13.705967    -0.690945    1.460292
H-H1-0.1469    13.766298    1.369568    0.427451
H-H1-0.1469    12.776131    0.755494    -0.892630
H-H1-0.1469    14.493692    0.390471    -0.850621
H-H-0.3570    4.828120    0.684785    -0.816437
H-HC-0.1060    3.710173    3.434604    -2.706288
H-HC-0.1060    4.588171    1.902533    -2.825678
H-HC-0.1060    5.244771    3.226201    -1.873716

D * 5 7 * F
