--Link1-- 
%chk=CHI1_-20
%NoSave 
#SP HF/6-31G*  Geom=(ModRedundant)  

paramfit run
  
0    1 
C-CT--0.3208    0.000000    0.000000    0.000000
N-N--0.5622    1.448187    0.000000    0.000000
C-C-0.8053    2.123200    0.475920    1.072365
O-O--0.6151    1.590179    0.696732    2.124447
C-CX-0.0839    3.650505    0.594143    0.921539
C-CU--0.3230    4.198902    1.549248    1.986845
C-CU--0.0657    4.307751    -0.809116    1.023981
C-CU--0.0109    3.524386    -1.953928    1.691349
C-CU-0.0816    2.494467    -2.712487    0.830832
C-CM--0.2354    3.072758    -3.323633    -0.423902
C-CM--0.2653    3.450994    -4.577952    -0.609322
C-CU-0.1214    3.399080    -5.709672    0.388810
C-CU--0.0354    2.231487    -6.689823    0.175280
C-CU--0.0984    2.287021    -7.388902    -1.189681
C-CU-0.1300    1.274265    -8.530488    -1.464912
C-CU--0.3561    1.498472    -9.012949    -2.907276
N-N--0.7186    1.544359    -9.623131    -0.540405
C-C-0.8537    0.717295    -10.705551    -0.454450
C-CT--0.3868    0.902443    -11.552633    0.783684
O-O--0.6323    -0.097178    -10.971138    -1.294236
C-C-0.7903    -0.150836    -8.001358    -1.185923
O-O--0.6136    -0.585296    -7.992187    -0.065616
N-N--0.5650    -0.829487    -7.464876    -2.223035
C-CT--0.3231    -2.188346    -6.996981    -2.041981
N-N--0.7191    3.997412    1.070275    -0.425452
C-C-0.8539    3.587019    2.267163    -0.934086
C-CT--0.3903    4.328148    2.727659    -2.172145
O-O--0.6290    2.697134    2.905425    -0.447397
H-H1-0.1459    -0.403259    1.006147    0.000000
H-H1-0.1459    -0.364960    -0.516002    0.875939
H-H1-0.1459    -0.345658    -0.522086    -0.883346
H-H-0.3572    1.904244    0.070913    -0.879357
H-HC-0.0997    3.932135    1.221760    2.980082
H-HC-0.0997    5.280920    1.595925    1.907500
H-HC-0.0997    3.792711    2.540594    1.848395
H-HC-0.0347    5.217877    -0.664774    1.601959
H-HC-0.0347    4.623240    -1.114711    0.031329
H-HC-0.0243    4.262575    -2.675990    2.027983
H-HC-0.0243    3.027865    -1.591748    2.585590
H-HC-0.0171    1.679505    -2.053644    0.560411
H-HC-0.0171    2.060294    -3.483917    1.457110
H-HA-0.1313    3.179249    -2.647228    -1.256518
H-HA-0.1359    3.839712    -4.837067    -1.581700
H-HC-0.0092    3.333762    -5.318987    1.397058
H-HC-0.0092    4.337804    -6.259878    0.337176
H-HC-0.0318    2.257856    -7.416189    0.982790
H-HC-0.0318    1.294818    -6.158878    0.282886
H-HC-0.0435    3.278190    -7.811912    -1.338612
H-HC-0.0435    2.147272    -6.645228    -1.965419
H-HC-0.1066    2.484790    -9.456956    -2.975210
H-HC-0.1066    1.465842    -8.185243    -3.608146
H-HC-0.1066    0.772833    -9.758593    -3.195723
H-H-0.3529    1.971916    -9.357854    0.317228
H-HC-0.1047    0.505806    -12.539401    0.599216
H-HC-0.1047    0.345626    -11.100200    1.598782
H-HC-0.1047    1.944005    -11.623594    1.077786
H-H-0.3615    -0.550600    -7.704506    -3.145049
H-H1-0.1469    -2.505634    -6.498167    -2.948311
H-H1-0.1469    -2.226308    -6.295236    -1.221775
H-H1-0.1469    -2.870049    -7.813437    -1.826496
H-H-0.3570    4.828120    0.684785    -0.816437
H-HC-0.1060    3.710173    3.434604    -2.706288
H-HC-0.1060    4.588171    1.902533    -2.825678
H-HC-0.1060    5.244771    3.226201    -1.873716

D * 5 7 * F
