--Link1-- 
%chk=CHI1_-140
%NoSave 
#SP HF/6-31G*  Geom=(ModRedundant)  

paramfit run
  
0    1 
C-CT--0.3208    0.000000    0.000000    0.000000
N-N--0.5622    1.448187    0.000000    0.000000
C-C-0.8053    2.123200    0.475920    1.072365
O-O--0.6151    1.590179    0.696732    2.124447
C-CX-0.0839    3.650505    0.594143    0.921539
C-CU--0.3230    4.198902    1.549248    1.986845
C-CU--0.0657    4.307751    -0.809116    1.023981
C-CU--0.0109    5.630483    -0.959793    1.796839
C-CU-0.0816    5.551097    -1.098391    3.330177
C-CM--0.2354    4.698555    -2.253824    3.799673
C-CM--0.2653    5.106085    -3.452907    4.182915
C-CU-0.1214    6.525552    -3.963825    4.244812
C-CU--0.0354    7.125869    -3.996899    5.661883
C-CU--0.0984    6.348794    -4.916862    6.613060
C-CU-0.1300    6.945812    -5.181710    8.019499
C-CU--0.3561    5.954018    -6.072516    8.785175
N-N--0.7186    8.209909    -5.887824    7.861406
C-C-0.8537    9.031186    -6.126832    8.925096
C-CT--0.3868    10.446659    -6.514474    8.563193
O-O--0.6323    8.664421    -6.038285    10.063861
C-C-0.7903    7.232160    -3.821959    8.696114
O-O--0.6136    8.251542    -3.230811    8.460885
N-N--0.5650    6.257006    -3.292437    9.465959
C-CT--0.3231    6.478921    -2.045993    10.169758
N-N--0.7191    3.997412    1.070275    -0.425452
C-C-0.8539    3.587019    2.267163    -0.934086
C-CT--0.3903    4.328148    2.727659    -2.172145
O-O--0.6290    2.697134    2.905425    -0.447397
H-H1-0.1459    -0.403259    1.006147    0.000000
H-H1-0.1459    -0.364960    -0.516002    0.875939
H-H1-0.1459    -0.345658    -0.522086    -0.883346
H-H-0.3572    1.904244    0.070913    -0.879357
H-HC-0.0997    3.932135    1.221760    2.980082
H-HC-0.0997    5.280920    1.595925    1.907500
H-HC-0.0997    3.792711    2.540594    1.848395
H-HC-0.0347    4.499171    -1.118427    -0.001156
H-HC-0.0347    3.574244    -1.504690    1.419487
H-HC-0.0243    6.110225    -1.855488    1.413177
H-HC-0.0243    6.295505    -0.136286    1.558185
H-HC-0.0171    5.176358    -0.181740    3.766853
H-HC-0.0171    6.566318    -1.210096    3.694432
H-HA-0.1313    3.638103    -2.061473    3.823271
H-HA-0.1359    4.348345    -4.155367    4.492984
H-HC-0.0092    7.170096    -3.360060    3.617519
H-HC-0.0092    6.550036    -4.969049    3.825862
H-HC-0.0318    8.160695    -4.316223    5.575046
H-HC-0.0318    7.157003    -2.991421    6.060473
H-HC-0.0435    6.215231    -5.889940    6.145285
H-HC-0.0435    5.357448    -4.504670    6.760304
H-HC-0.1066    5.899200    -7.035307    8.290596
H-HC-0.1066    4.956211    -5.646242    8.777820
H-HC-0.1066    6.269210    -6.235162    9.804949
H-H-0.3529    8.681048    -5.727590    7.000555
H-HC-0.1047    10.896018    -7.030599    9.397911
H-HC-0.1047    11.013762    -5.609450    8.367104
H-HC-0.1047    10.484849    -7.141408    7.678955
H-H-0.3615    5.556130    -3.897538    9.823640
H-H1-0.1469    5.547455    -1.735473    10.624587
H-H1-0.1469    6.801439    -1.286140    9.473172
H-H1-0.1469    7.235986    -2.148029    10.940599
H-H-0.3570    4.828120    0.684785    -0.816437
H-HC-0.1060    3.710173    3.434604    -2.706288
H-HC-0.1060    4.588171    1.902533    -2.825678
H-HC-0.1060    5.244771    3.226201    -1.873716

D * 5 7 * F
