--Link1-- 
%chk=CHI1_-40
%NoSave 
#SP HF/6-31G*  Geom=(ModRedundant)  

paramfit run
  
0    1 
C-CT--0.3208    0.000000    0.000000    0.000000
N-N--0.5622    1.448187    0.000000    0.000000
C-C-0.8053    2.123200    0.475920    1.072365
O-O--0.6151    1.590179    0.696732    2.124447
C-CX-0.0839    3.650505    0.594143    0.921539
C-CU--0.3230    4.198902    1.549248    1.986845
C-CU--0.0657    4.307751    -0.809116    1.023981
C-CU--0.0109    3.771119    -1.811315    2.061891
C-CU-0.0816    2.525169    -2.635959    1.682143
C-CM--0.2354    2.685243    -3.443843    0.415661
C-CM--0.2653    2.987767    -4.727713    0.311190
C-CU-0.1214    3.249150    -5.703649    1.433234
C-CU--0.0354    2.073498    -6.649824    1.736814
C-CU--0.0984    1.702486    -7.536376    0.540449
C-CU-0.1300    0.654914    -8.657974    0.762389
C-CU--0.3561    0.420064    -9.348926    -0.590711
N-N--0.7186    1.199466    -9.620348    1.710455
C-C-0.8537    0.440598    -10.640923    2.206040
C-CT--0.3868    1.001743    -11.312307    3.438583
O-O--0.6323    -0.594375    -10.984953    1.706424
C-C-0.7903    -0.613210    -8.030295    1.384167
O-O--0.6136    -0.678042    -7.843264    2.569386
N-N--0.5650    -1.580805    -7.615182    0.538341
C-CT--0.3231    -2.816367    -7.064908    1.056787
N-N--0.7191    3.997412    1.070275    -0.425452
C-C-0.8539    3.587019    2.267163    -0.934086
C-CT--0.3903    4.328148    2.727659    -2.172145
O-O--0.6290    2.697134    2.905425    -0.447397
H-H1-0.1459    -0.403259    1.006147    0.000000
H-H1-0.1459    -0.364960    -0.516002    0.875939
H-H1-0.1459    -0.345658    -0.522086    -0.883346
H-H-0.3572    1.904244    0.070913    -0.879357
H-HC-0.0997    3.932135    1.221760    2.980082
H-HC-0.0997    5.280920    1.595925    1.907500
H-HC-0.0997    3.792711    2.540594    1.848395
H-HC-0.0347    5.352349    -0.626311    1.266094
H-HC-0.0347    4.299318    -1.265845    0.039295
H-HC-0.0243    4.577731    -2.511550    2.258530
H-HC-0.0243    3.576872    -1.304260    3.001326
H-HC-0.0171    1.666191    -1.985394    1.580718
H-HC-0.0171    2.307487    -3.290639    2.518708
H-HA-0.1313    2.527396    -2.897311    -0.500036
H-HA-0.1359    3.055215    -5.138956    -0.683843
H-HC-0.0092    3.500172    -5.171984    2.343062
H-HC-0.0092    4.125633    -6.297886    1.177785
H-HC-0.0318    2.349851    -7.255369    2.595486
H-HC-0.0318    1.216370    -6.066828    2.047100
H-HC-0.0435    2.598520    -8.020951    0.158555
H-HC-0.0435    1.328230    -6.904055    -0.256077
H-HC-0.1066    1.336668    -9.842612    -0.891865
H-HC-0.1066    0.170847    -8.627824    -1.362257
H-HC-0.1066    -0.358909    -10.093929    -0.528183
H-H-0.3529    1.872224    -9.256453    2.345820
H-HC-0.1047    0.567915    -12.296100    3.533491
H-HC-0.1047    0.725548    -10.724418    4.308771
H-HC-0.1047    2.083167    -11.388491    3.405406
H-H-0.3615    -1.602110    -7.995035    -0.378484
H-H1-0.1469    -3.399831    -6.685073    0.228406
H-H1-0.1469    -2.597932    -6.253417    1.735311
H-H1-0.1469    -3.396954    -7.810809    1.589990
H-H-0.3570    4.828120    0.684785    -0.816437
H-HC-0.1060    3.710173    3.434604    -2.706288
H-HC-0.1060    4.588171    1.902533    -2.825678
H-HC-0.1060    5.244771    3.226201    -1.873716

D * 5 7 * F
