--Link1-- 
%chk=CHI1_-60
%NoSave 
#SP HF/6-31G*  Geom=(ModRedundant)  

paramfit run
  
0    1 
C-CT--0.3208    0.000000    0.000000    0.000000
N-N--0.5622    1.448187    0.000000    0.000000
C-C-0.8053    2.123200    0.475920    1.072365
O-O--0.6151    1.590179    0.696732    2.124447
C-CX-0.0839    3.650505    0.594143    0.921539
C-CU--0.3230    4.198902    1.549248    1.986845
C-CU--0.0657    4.307751    -0.809116    1.023981
C-CU--0.0109    4.120707    -1.629232    2.313189
C-CU-0.0816    2.818849    -2.441509    2.461547
C-CM--0.2354    2.577858    -3.426531    1.341756
C-CM--0.2653    2.833586    -4.724745    1.341030
C-CU-0.1214    3.431183    -5.543423    2.460137
C-CU--0.0354    2.408540    -6.382636    3.247214
C-CU--0.0984    1.684582    -7.411327    2.368241
C-CU-0.1300    0.758399    -8.441389    3.065235
C-CU--0.3561    0.115060    -9.304982    1.968069
N-N--0.7186    1.571077    -9.284134    3.931760
C-C-0.8537    1.004287    -10.188837    4.782242
C-CT--0.3868    1.920989    -10.704412    5.867896
O-O--0.6323    -0.134528    -10.552363    4.681783
C-C-0.7903    -0.254051    -7.675028    3.946349
O-O--0.6136    0.052527    -7.319805    5.052584
N-N--0.5650    -1.436785    -7.339756    3.387142
C-CT--0.3231    -2.450355    -6.666014    4.172604
N-N--0.7191    3.997412    1.070275    -0.425452
C-C-0.8539    3.587019    2.267163    -0.934086
C-CT--0.3903    4.328148    2.727659    -2.172145
O-O--0.6290    2.697134    2.905425    -0.447397
H-H1-0.1459    -0.403259    1.006147    0.000000
H-H1-0.1459    -0.364960    -0.516002    0.875939
H-H1-0.1459    -0.345658    -0.522086    -0.883346
H-H-0.3572    1.904244    0.070913    -0.879357
H-HC-0.0997    3.932135    1.221760    2.980082
H-HC-0.0997    5.280920    1.595925    1.907500
H-HC-0.0997    3.792711    2.540594    1.848395
H-HC-0.0347    5.375778    -0.641818    0.903357
H-HC-0.0347    3.993984    -1.399403    0.168767
H-HC-0.0243    4.948843    -2.330765    2.353969
H-HC-0.0243    4.227742    -0.986316    3.180701
H-HC-0.0171    1.970552    -1.773267    2.533729
H-HC-0.0171    2.872226    -2.960925    3.411911
H-HA-0.1313    2.143008    -3.008102    0.448483
H-HA-0.1359    2.588706    -5.274972    0.446019
H-HC-0.0092    3.952230    -4.900665    3.159305
H-HC-0.0092    4.185195    -6.207133    2.038773
H-HC-0.0318    2.938340    -6.872881    4.059215
H-HC-0.0318    1.689970    -5.723184    3.715840
H-HC-0.0435    2.417832    -7.985330    1.805747
H-HC-0.0435    1.081024    -6.881363    1.640775
H-HC-0.1066    0.892954    -9.877537    1.476497
H-HC-0.1066    -0.361932    -8.689397    1.212480
H-HC-0.1066    -0.605547    -9.997374    2.376797
H-H-0.3529    2.407781    -8.865274    4.268204
H-HC-0.1047    1.538623    -11.644128    6.236394
H-HC-0.1047    1.928574    -9.987592    6.683516
H-HC-0.1047    2.938606    -10.833777    5.515612
H-H-0.3615    -1.741738    -7.843850    2.588266
H-H1-0.1469    -3.262536    -6.380693    3.516955
H-H1-0.1469    -2.032296    -5.777690    4.622862
H-H1-0.1469    -2.836138    -7.301906    4.962899
H-H-0.3570    4.828120    0.684785    -0.816437
H-HC-0.1060    3.710173    3.434604    -2.706288
H-HC-0.1060    4.588171    1.902533    -2.825678
H-HC-0.1060    5.244771    3.226201    -1.873716

D * 5 7 * F
