--Link1-- 
%chk=CHI1_-170
%NoSave 
#SP HF/6-31G*  Geom=(ModRedundant)  

paramfit run
  
0    1 
C-CT--0.3208    0.000000    0.000000    0.000000
N-N--0.5622    1.448187    0.000000    0.000000
C-C-0.8053    2.123200    0.475920    1.072365
O-O--0.6151    1.590179    0.696732    2.124447
C-CX-0.0839    3.650505    0.594143    0.921539
C-CU--0.3230    4.198902    1.549248    1.986845
C-CU--0.0657    4.307751    -0.809116    1.023981
C-CU--0.0109    5.839839    -0.910115    1.134160
C-CU-0.0816    6.470225    -0.726389    2.528970
C-CM--0.2354    5.946412    -1.686016    3.571570
C-CM--0.2653    6.505596    -2.811909    3.984409
C-CU-0.1214    7.806478    -3.417212    3.514227
C-CU--0.0354    8.986924    -3.211477    4.480553
C-CU--0.0984    8.745410    -3.849694    5.855058
C-CU-0.1300    9.922307    -3.871922    6.864545
C-CU--0.3561    9.404651    -4.501389    8.168100
N-N--0.7186    10.988253    -4.699334    6.316201
C-C-0.8537    12.208135    -4.785038    6.922501
C-CT--0.3868    13.310150    -5.356057    6.059769
O-O--0.6323    12.398854    -4.435895    8.054255
C-C-0.7903    10.460576    -2.431934    7.024000
O-O--0.6136    11.249901    -1.989068    6.233579
N-N--0.5650    9.933704    -1.676538    8.011807
C-CT--0.3231    10.429076    -0.336109    8.248572
N-N--0.7191    3.997412    1.070275    -0.425452
C-C-0.8539    3.587019    2.267163    -0.934086
C-CT--0.3903    4.328148    2.727659    -2.172145
O-O--0.6290    2.697134    2.905425    -0.447397
H-H1-0.1459    -0.403259    1.006147    0.000000
H-H1-0.1459    -0.364960    -0.516002    0.875939
H-H1-0.1459    -0.345658    -0.522086    -0.883346
H-H-0.3572    1.904244    0.070913    -0.879357
H-HC-0.0997    3.932135    1.221760    2.980082
H-HC-0.0997    5.280920    1.595925    1.907500
H-HC-0.0997    3.792711    2.540594    1.848395
H-HC-0.0347    4.016764    -1.335692    0.117744
H-HC-0.0347    3.847781    -1.345280    1.848140
H-HC-0.0243    6.108392    -1.902321    0.783412
H-HC-0.0243    6.307973    -0.211455    0.448522
H-HC-0.0171    6.318894    0.288210    2.874009
H-HC-0.0171    7.541771    -0.846678    2.414278
H-HA-0.1313    5.009825    -1.404277    4.024936
H-HA-0.1359    5.985265    -3.370145    4.746897
H-HC-0.0092    8.083353    -3.010306    2.549223
H-HC-0.0092    7.655765    -4.485098    3.360938
H-HC-0.0318    9.874214    -3.627787    4.011749
H-HC-0.0318    9.177859    -2.152172    4.591220
H-HC-0.0435    8.431203    -4.882856    5.723213
H-HC-0.0435    7.922642    -3.334159    6.336335
H-HC-0.1066    9.148131    -5.536608    7.975485
H-HC-0.1066    8.505449    -4.003055    8.515202
H-HC-0.1066    10.152706    -4.478928    8.946334
H-H-0.3529    11.012492    -4.758012    5.323890
H-HC-0.1047    14.099765    -5.727368    6.695140
H-HC-0.1047    13.709036    -4.560970    5.436992
H-HC-0.1047    12.952768    -6.150852    5.414044
H-H-0.3615    9.483894    -2.134903    8.768697
H-H1-0.1469    9.801579    0.137843    8.991901
H-H1-0.1469    10.384925    0.236059    7.333531
H-H1-0.1469    11.455900    -0.342432    8.599779
H-H-0.3570    4.828120    0.684785    -0.816437
H-HC-0.1060    3.710173    3.434604    -2.706288
H-HC-0.1060    4.588171    1.902533    -2.825678
H-HC-0.1060    5.244771    3.226201    -1.873716

D * 5 7 * F
