--Link1-- 
%chk=CHI1_-30
%NoSave 
#SP HF/6-31G*  Geom=(ModRedundant)  

paramfit run
  
0    1 
C-CT--0.3208    0.000000    0.000000    0.000000
N-N--0.5622    1.448187    0.000000    0.000000
C-C-0.8053    2.123200    0.475920    1.072365
O-O--0.6151    1.590179    0.696732    2.124447
C-CX-0.0839    3.650505    0.594143    0.921539
C-CU--0.3230    4.198902    1.549248    1.986845
C-CU--0.0657    4.307751    -0.809116    1.023981
C-CU--0.0109    3.632694    -1.888769    1.889013
C-CU-0.0816    2.475946    -2.689895    1.259118
C-CM--0.2354    2.846161    -3.400400    -0.021664
C-CM--0.2653    3.183427    -4.671211    -0.170149
C-CU-0.1214    3.282813    -5.726430    0.905207
C-CU--0.0354    2.090652    -6.699190    0.950543
C-CU--0.0984    1.926790    -7.496357    -0.350452
C-CU-0.1300    0.876916    -8.637254    -0.378103
C-CU--0.3561    0.868668    -9.226938    -1.797841
N-N--0.7186    1.282932    -9.664407    0.571444
C-C-0.8537    0.473596    -10.723291    0.866054
C-CT--0.3868    0.846456    -11.481336    2.119508
O-O--0.6323    -0.464347    -11.035034    0.186185
C-C-0.7903    -0.483530    -8.064743    0.080309
O-O--0.6136    -0.736255    -7.966777    1.250976
N-N--0.5650    -1.313865    -7.593321    -0.874828
C-CT--0.3231    -2.624649    -7.090127    -0.518679
N-N--0.7191    3.997412    1.070275    -0.425452
C-C-0.8539    3.587019    2.267163    -0.934086
C-CT--0.3903    4.328148    2.727659    -2.172145
O-O--0.6290    2.697134    2.905425    -0.447397
H-H1-0.1459    -0.403259    1.006147    0.000000
H-H1-0.1459    -0.364960    -0.516002    0.875939
H-H1-0.1459    -0.345658    -0.522086    -0.883346
H-H-0.3572    1.904244    0.070913    -0.879357
H-HC-0.0997    3.932135    1.221760    2.980082
H-HC-0.0997    5.280920    1.595925    1.907500
H-HC-0.0997    3.792711    2.540594    1.848395
H-HC-0.0347    5.298278    -0.638936    1.440054
H-HC-0.0347    4.461400    -1.191361    0.019710
H-HC-0.0243    4.410565    -2.597129    2.158758
H-HC-0.0243    3.285106    -1.454117    2.820482
H-HC-0.0171    1.632320    -2.038447    1.071302
H-HC-0.0171    2.141370    -3.406219    2.001259
H-HA-0.1313    2.824142    -2.788156    -0.908674
H-HA-0.1359    3.412844    -5.006898    -1.169370
H-HC-0.0092    3.379149    -5.262519    1.879359
H-HC-0.0092    4.198600    -6.295057    0.748390
H-HC-0.0318    2.239643    -7.365371    1.795752
H-HC-0.0318    1.185592    -6.145742    1.163596
H-HC-0.0435    2.879778    -7.946111    -0.620765
H-HC-0.0435    1.670930    -6.808651    -1.147915
H-HC-0.1066    1.829491    -9.691668    -1.986061
H-HC-0.1066    0.730846    -8.451850    -2.544584
H-HC-0.1066    0.102487    -9.978914    -1.912897
H-H-0.3529    1.841591    -9.344998    1.329461
H-HC-0.1047    0.420172    -12.471896    2.073313
H-HC-0.1047    0.427381    -10.961385    2.975752
H-HC-0.1047    1.920901    -11.548734    2.251449
H-H-0.3615    -1.184874    -7.904025    -1.808710
H-H1-0.1469    -3.077763    -6.653014    -1.398759
H-H1-0.1469    -2.529129    -6.330146    0.242853
H-H1-0.1469    -3.268557    -7.876896    -0.139032
H-H-0.3570    4.828120    0.684785    -0.816437
H-HC-0.1060    3.710173    3.434604    -2.706288
H-HC-0.1060    4.588171    1.902533    -2.825678
H-HC-0.1060    5.244771    3.226201    -1.873716

D * 5 7 * F
