--Link1-- 
%chk=CHI1_-150
%NoSave 
#SP HF/6-31G*  Geom=(ModRedundant)  

paramfit run
  
0    1 
C-CT--0.3208    0.000000    0.000000    0.000000
N-N--0.5622    1.448187    0.000000    0.000000
C-C-0.8053    2.123200    0.475920    1.072365
O-O--0.6151    1.590179    0.696732    2.124447
C-CX-0.0839    3.650505    0.594143    0.921539
C-CU--0.3230    4.198902    1.549248    1.986845
C-CU--0.0657    4.307751    -0.809116    1.023981
C-CU--0.0109    5.734735    -0.926110    1.589368
C-CU-0.0816    5.896806    -0.951651    3.122246
C-CM--0.2354    5.122242    -2.055064    3.804015
C-CM--0.2653    5.578218    -3.230023    4.206897
C-CU-0.1214    6.986838    -3.759531    4.083740
C-CU--0.0354    7.802438    -3.700016    5.387895
C-CU--0.0984    7.179515    -4.534955    6.514731
C-CU-0.1300    7.988876    -4.707283    7.826174
C-CU--0.3561    7.124890    -5.522904    8.801747
N-N--0.7186    9.208348    -5.444729    7.525191
C-C-0.8537    10.185391    -5.620040    8.462054
C-CT--0.3868    11.524083    -6.057309    7.912961
O-O--0.6323    10.002869    -5.442748    9.634400
C-C-0.7903    8.385784    -3.307153    8.346581
O-O--0.6136    9.358781    -2.752326    7.911410
N-N--0.5650    7.546905    -2.706389    9.217986
C-CT--0.3231    7.883821    -1.416164    9.783678
N-N--0.7191    3.997412    1.070275    -0.425452
C-C-0.8539    3.587019    2.267163    -0.934086
C-CT--0.3903    4.328148    2.727659    -2.172145
O-O--0.6290    2.697134    2.905425    -0.447397
H-H1-0.1459    -0.403259    1.006147    0.000000
H-H1-0.1459    -0.364960    -0.516002    0.875939
H-H1-0.1459    -0.345658    -0.522086    -0.883346
H-H-0.3572    1.904244    0.070913    -0.879357
H-HC-0.0997    3.932135    1.221760    2.980082
H-HC-0.0997    5.280920    1.595925    1.907500
H-HC-0.0997    3.792711    2.540594    1.848395
H-HC-0.0347    4.333747    -1.195282    0.007408
H-HC-0.0347    3.641692    -1.461379    1.580039
H-HC-0.0243    6.143074    -1.855441    1.203073
H-HC-0.0243    6.358564    -0.133704    1.188988
H-HC-0.0171    5.600619    0.000612    3.542761
H-HC-0.0171    6.956046    -1.054132    3.330433
H-HA-0.1313    4.079814    -1.843228    3.978894
H-HA-0.1359    4.874748    -3.894935    4.683115
H-HC-0.0092    7.528056    -3.214110    3.320154
H-HC-0.0092    6.939426    -4.792786    3.742083
H-HC-0.0318    8.808894    -4.042620    5.164192
H-HC-0.0318    7.901572    -2.668946    5.700778
H-HC-0.0435    6.968527    -5.536969    6.147327
H-HC-0.0435    6.226025    -4.096108    6.784215
H-HC-0.1066    6.987505    -6.517966    8.394857
H-HC-0.1066    6.140776    -5.081125    8.918933
H-HC-0.1066    7.595680    -5.616516    9.768872
H-H-0.3529    9.539073    -5.355563    6.591713
H-HC-0.1047    12.096255    -6.519164    8.703132
H-HC-0.1047    12.058371    -5.178833    7.563761
H-HC-0.1047    11.419135    -6.747339    7.082764
H-H-0.3615    6.907629    -3.271740    9.724953
H-H1-0.1469    7.037285    -1.057413    10.354288
H-H1-0.1469    8.097008    -0.714560    8.990627
H-H1-0.1469    8.752149    -1.475033    10.431979
H-H-0.3570    4.828120    0.684785    -0.816437
H-HC-0.1060    3.710173    3.434604    -2.706288
H-HC-0.1060    4.588171    1.902533    -2.825678
H-HC-0.1060    5.244771    3.226201    -1.873716

D * 5 7 * F
