--Link1-- 
%chk=CHI1_-180
%NoSave 
#SP HF/6-31G*  Geom=(ModRedundant)  

paramfit run
  
0    1 
C-CT--0.3208    0.000000    0.000000    0.000000
N-N--0.5622    1.448187    0.000000    0.000000
C-C-0.8053    2.123200    0.475920    1.072365
O-O--0.6151    1.590179    0.696732    2.124447
C-CX-0.0839    3.650505    0.594143    0.921539
C-CU--0.3230    4.198902    1.549248    1.986845
C-CU--0.0657    4.307751    -0.809116    1.023981
C-CU--0.0109    5.837497    -0.928287    0.900254
C-CU-0.0816    6.680512    -0.654712    2.161650
C-CM--0.2354    6.321854    -1.526941    3.341844
C-CM--0.2653    6.932663    -2.629383    3.744698
C-CU-0.1214    8.139928    -3.289588    3.123091
C-CU--0.0354    9.458852    -3.034664    3.874767
C-CU--0.0984    9.433006    -3.567160    5.313758
C-CU-0.1300    10.753929    -3.536371    6.125459
C-CU--0.3561    10.444271    -4.060524    7.537134
N-N--0.7186    11.715636    -4.419683    5.480161
C-C-0.8537    13.015214    -4.482200    5.892769
C-CT--0.3868    13.964524    -5.133277    4.913119
O-O--0.6323    13.383591    -4.055171    6.951583
C-C-0.7903    11.318702    -2.098115    6.091137
O-O--0.6136    11.976321    -1.727486    5.156204
N-N--0.5650    10.958082    -1.264026    7.090251
C-CT--0.3231    11.492095    0.081300    7.146189
N-N--0.7191    3.997412    1.070275    -0.425452
C-C-0.8539    3.587019    2.267163    -0.934086
C-CT--0.3903    4.328148    2.727659    -2.172145
O-O--0.6290    2.697134    2.905425    -0.447397
H-H1-0.1459    -0.403259    1.006147    0.000000
H-H1-0.1459    -0.364960    -0.516002    0.875939
H-H1-0.1459    -0.345658    -0.522086    -0.883346
H-H-0.3572    1.904244    0.070913    -0.879357
H-HC-0.0997    3.932135    1.221760    2.980082
H-HC-0.0997    5.280920    1.595925    1.907500
H-HC-0.0997    3.792711    2.540594    1.848395
H-HC-0.0347    3.874837    -1.394982    0.216164
H-HC-0.0347    3.980161    -1.276021    1.947543
H-HC-0.0243    6.041915    -1.947825    0.586606
H-HC-0.0243    6.195862    -0.289426    0.099751
H-HC-0.0171    6.591083    0.384717    2.449666
H-HC-0.0171    7.719971    -0.801491    1.889958
H-HA-0.1313    5.469867    -1.196908    3.913956
H-HA-0.1359    6.535636    -3.121733    4.618610
H-HC-0.0092    8.263817    -2.958644    2.099082
H-HC-0.0092    7.960948    -4.363023    3.075154
H-HC-0.0318    10.258966    -3.499162    3.305178
H-HC-0.0318    9.670797    -1.973575    3.875072
H-HC-0.0435    9.096141    -4.601589    5.309943
H-HC-0.0435    8.699131    -3.003923    5.878153
H-HC-0.1066    10.154801    -5.102410    7.464594
H-HC-0.1066    9.613708    -3.522859    7.982625
H-HC-0.1066    11.305568    -3.994551    8.184864
H-H-0.3529    11.583116    -4.550644    4.503432
H-HC-0.1047    14.842163    -5.471066    5.442939
H-HC-0.1047    14.264939    -4.392499    4.178188
H-HC-0.1047    13.505517    -5.966558    4.392218
H-H-0.3615    10.630380    -1.658407    7.940184
H-H1-0.1469    10.992051    0.618721    7.941209
H-H1-0.1469    11.307756    0.586216    6.209330
H-H1-0.1469    12.561335    0.082760    7.331869
H-H-0.3570    4.828120    0.684785    -0.816437
H-HC-0.1060    3.710173    3.434604    -2.706288
H-HC-0.1060    4.588171    1.902533    -2.825678
H-HC-0.1060    5.244771    3.226201    -1.873716

D * 5 7 * F
