--Link1-- 
%chk=CHI1_-120
%NoSave 
#SP HF/6-31G*  Geom=(ModRedundant)  

paramfit run
  
0    1 
C-CT--0.3208    0.000000    0.000000    0.000000
N-N--0.5622    1.448187    0.000000    0.000000
C-C-0.8053    2.123200    0.475920    1.072365
O-O--0.6151    1.590179    0.696732    2.124447
C-CX-0.0839    3.650505    0.594143    0.921539
C-CU--0.3230    4.198902    1.549248    1.986845
C-CU--0.0657    4.307751    -0.809116    1.023981
C-CU--0.0109    5.334321    -1.073441    2.140189
C-CU-0.0816    4.793883    -1.437933    3.537225
C-CM--0.2354    3.891954    -2.649801    3.550513
C-CM--0.2653    4.216220    -3.892675    3.868119
C-CU-0.1214    5.569702    -4.407833    4.295264
C-CU--0.0354    5.706242    -4.651062    5.809121
C-CU--0.0984    4.717244    -5.701560    6.331856
C-CU-0.1300    4.864491    -6.172419    7.801978
C-CU--0.3561    3.727092    -7.166457    8.087745
N-N--0.7186    6.146819    -6.847902    7.946509
C-C-0.8537    6.611395    -7.242473    9.167795
C-CT--0.3868    8.085721    -7.572848    9.212747
O-O--0.6323    5.908723    -7.323655    10.136714
C-C-0.7903    4.866651    -4.928232    8.718884
O-O--0.6136    5.880900    -4.309240    8.897987
N-N--0.5650    3.678983    -4.518284    9.214232
C-CT--0.3231    3.616714    -3.390150    10.120673
N-N--0.7191    3.997412    1.070275    -0.425452
C-C-0.8539    3.587019    2.267163    -0.934086
C-CT--0.3903    4.328148    2.727659    -2.172145
O-O--0.6290    2.697134    2.905425    -0.447397
H-H1-0.1459    -0.403259    1.006147    0.000000
H-H1-0.1459    -0.364960    -0.516002    0.875939
H-H1-0.1459    -0.345658    -0.522086    -0.883346
H-H-0.3572    1.904244    0.070913    -0.879357
H-HC-0.0997    3.932135    1.221760    2.980082
H-HC-0.0997    5.280920    1.595925    1.907500
H-HC-0.0997    3.792711    2.540594    1.848395
H-HC-0.0347    4.818906    -0.963024    0.076219
H-HC-0.0347    3.520725    -1.555298    1.069623
H-HC-0.0243    5.949107    -1.902551    1.802204
H-HC-0.0243    6.002204    -0.223976    2.238758
H-HC-0.0171    4.261651    -0.596016    3.960626
H-HC-0.0171    5.651981    -1.602947    4.179310
H-HA-0.1313    2.867970    -2.462548    3.270322
H-HA-0.1359    3.432737    -4.632979    3.824953
H-HC-0.0092    6.347603    -3.718015    3.991148
H-HC-0.0092    5.767612    -5.339797    3.767183
H-HC-0.0318    6.731100    -4.954490    6.003985
H-HC-0.0318    5.567443    -3.715855    6.335383
H-HC-0.0435    4.778472    -6.594411    5.713308
H-HC-0.0435    3.710910    -5.315275    6.220393
H-HC-0.1066    3.870936    -8.045198    7.469923
H-HC-0.1066    2.761494    -6.743308    7.830945
H-HC-0.1066    3.720651    -7.478743    9.121270
H-H-0.3529    6.851925    -6.561972    7.306367
H-HC-0.1047    8.279814    -8.207316    10.064122
H-HC-0.1047    8.643729    -6.649034    9.332405
H-HC-0.1047    8.422415    -8.061690    8.304973
H-H-0.3615    2.930471    -5.169399    9.247231
H-H1-0.1469    2.577391    -3.150071    10.302581
H-H1-0.1469    4.102708    -2.535529    9.673393
H-H1-0.1469    4.104021    -3.605789    11.066076
H-H-0.3570    4.828120    0.684785    -0.816437
H-HC-0.1060    3.710173    3.434604    -2.706288
H-HC-0.1060    4.588171    1.902533    -2.825678
H-HC-0.1060    5.244771    3.226201    -1.873716

D * 5 7 * F
