--Link1-- 
%chk=CHI1_160
%NoSave 
#SP HF/6-31G*  Geom=(ModRedundant)  

paramfit run
  
0    1 
C-CT--0.3208    0.000000    0.000000    0.000000
N-N--0.5622    1.448187    0.000000    0.000000
C-C-0.8053    2.123200    0.475920    1.072365
O-O--0.6151    1.590179    0.696732    2.124447
C-CX-0.0839    3.650505    0.594143    0.921539
C-CU--0.3230    4.198902    1.549248    1.986845
C-CU--0.0657    4.307751    -0.809116    1.023981
C-CU--0.0109    5.723381    -1.014229    0.455164
C-CU-0.0816    6.916489    -0.604089    1.341119
C-CM--0.2354    6.942753    -1.283711    2.690083
C-CM--0.2653    7.649059    -2.344957    3.044546
C-CU-0.1214    8.603734    -3.140683    2.187125
C-CU--0.0354    10.090812    -2.842652    2.450454
C-CU--0.0984    10.513660    -3.164954    3.889979
C-CU-0.1300    12.021403    -3.080195    4.242363
C-CU--0.3561    12.165997    -3.385153    5.742211
N-N--0.7186    12.735426    -4.088701    3.471248
C-C-0.8537    14.098913    -4.151577    3.468905
C-CT--0.3868    14.697141    -4.977047    2.352872
O-O--0.6323    14.777853    -3.596622    4.287567
C-C-0.7903    12.546830    -1.688466    3.823148
O-O--0.6136    12.881190    -1.483914    2.687238
N-N--0.5650    12.514106    -0.706121    4.749381
C-CT--0.3231    13.038391    0.607851    4.438246
N-N--0.7191    3.997412    1.070275    -0.425452
C-C-0.8539    3.587019    2.267163    -0.934086
C-CT--0.3903    4.328148    2.727659    -2.172145
O-O--0.6290    2.697134    2.905425    -0.447397
H-H1-0.1459    -0.403259    1.006147    0.000000
H-H1-0.1459    -0.364960    -0.516002    0.875939
H-H1-0.1459    -0.345658    -0.522086    -0.883346
H-H-0.3572    1.904244    0.070913    -0.879357
H-HC-0.0997    3.932135    1.221760    2.980082
H-HC-0.0997    5.280920    1.595925    1.907500
H-HC-0.0997    3.792711    2.540594    1.848395
H-HC-0.0347    3.645543    -1.482777    0.484645
H-HC-0.0347    4.283597    -1.125542    2.062043
H-HC-0.0243    5.820728    -2.076086    0.248762
H-HC-0.0243    5.814939    -0.511784    -0.502197
H-HC-0.0171    6.920463    0.468575    1.485134
H-HC-0.0171    7.820139    -0.835021    0.788017
H-HA-0.1313    6.310555    -0.837700    3.440758
H-HA-0.1359    7.543491    -2.690387    4.061057
H-HC-0.0092    8.403127    -2.963599    1.137428
H-HC-0.0092    8.419258    -4.200841    2.356320
H-HC-0.0318    10.674558    -3.418918    1.738040
H-HC-0.0318    10.291827    -1.802931    2.228185
H-HC-0.0435    10.192805    -4.173106    4.143389
H-HC-0.0435    9.991212    -2.494798    4.562503
H-HC-0.1066    11.868838    -4.412543    5.917561
H-HC-0.1066    11.514711    -2.752659    6.336482
H-HC-0.1066    13.185897    -3.267776    6.076526
H-H-0.3529    12.306025    -4.350039    2.613326
H-HC-0.1047    15.696137    -5.276353    2.631229
H-HC-0.1047    14.753942    -4.361912    1.459839
H-HC-0.1047    14.099412    -5.853694    2.127948
H-H-0.3615    12.466930    -0.961213    5.707510
H-H1-0.1469    12.809874    1.274363    5.259504
H-H1-0.1469    12.571807    0.983346    3.539398
H-H1-0.1469    14.112396    0.586720    4.283908
H-H-0.3570    4.828120    0.684785    -0.816437
H-HC-0.1060    3.710173    3.434604    -2.706288
H-HC-0.1060    4.588171    1.902533    -2.825678
H-HC-0.1060    5.244771    3.226201    -1.873716

D * 5 7 * F
