--Link1-- 
%chk=CHI1_120
%NoSave 
#SP HF/6-31G*  Geom=(ModRedundant)  

paramfit run
  
0    1 
C-CT--0.3208    0.000000    0.000000    0.000000
N-N--0.5622    1.448187    0.000000    0.000000
C-C-0.8053    2.123200    0.475920    1.072365
O-O--0.6151    1.590179    0.696732    2.124447
C-CX-0.0839    3.650505    0.594143    0.921539
C-CU--0.3230    4.198902    1.549248    1.986845
C-CU--0.0657    4.307751    -0.809116    1.023981
C-CU--0.0109    5.127061    -1.338924    -0.166677
C-CU-0.0816    6.592109    -0.875067    -0.289597
C-CM--0.2354    7.437655    -1.180812    0.924425
C-CM--0.2653    8.266469    -2.198163    1.094195
C-CU-0.1214    8.571634    -3.306931    0.115798
C-CU--0.0354    9.913762    -3.149838    -0.621481
C-CU--0.0984    11.116103    -3.142527    0.332058
C-CU-0.1300    12.537274    -3.169291    -0.287783
C-CU--0.3561    13.549415    -3.093117    0.866869
N-N--0.7186    12.708713    -4.427694    -1.000918
C-C-0.8537    13.811927    -4.668288    -1.767788
C-CT--0.3868    13.678601    -5.825265    -2.731341
O-O--0.6323    14.815210    -4.015393    -1.688453
C-C-0.7903    12.650051    -2.014793    -1.309125
O-O--0.6136    12.243374    -2.156294    -2.430963
N-N--0.5650    13.121411    -0.831238    -0.860796
C-CT--0.3231    13.300407    0.276888    -1.776339
N-N--0.7191    3.997412    1.070275    -0.425452
C-C-0.8539    3.587019    2.267163    -0.934086
C-CT--0.3903    4.328148    2.727659    -2.172145
O-O--0.6290    2.697134    2.905425    -0.447397
H-H1-0.1459    -0.403259    1.006147    0.000000
H-H1-0.1459    -0.364960    -0.516002    0.875939
H-H1-0.1459    -0.345658    -0.522086    -0.883346
H-H-0.3572    1.904244    0.070913    -0.879357
H-HC-0.0997    3.932135    1.221760    2.980082
H-HC-0.0997    5.280920    1.595925    1.907500
H-HC-0.0997    3.792711    2.540594    1.848395
H-HC-0.0347    3.487641    -1.505733    1.183246
H-HC-0.0347    4.912853    -0.840850    1.924606
H-HC-0.0243    5.134461    -2.421311    -0.077225
H-HC-0.0243    4.615063    -1.117215    -1.097310
H-HC-0.0171    6.629418    0.188199    -0.488183
H-HC-0.0171    7.008210    -1.358011    -1.166785
H-HA-0.1313    7.346798    -0.476825    1.735758
H-HA-0.1359    8.794500    -2.252481    2.033341
H-HC-0.0092    7.784661    -3.381920    -0.624821
H-HC-0.0092    8.571868    -4.253585    0.654723
H-HC-0.0318    9.994077    -3.962224    -1.338386
H-HC-0.0318    9.896679    -2.238623    -1.204769
H-HC-0.0435    11.053167    -3.999686    0.999030
H-HC-0.0435    11.057464    -2.258660    0.956310
H-HC-0.1066    13.460679    -3.991960    1.465857
H-HC-0.1066    13.342491    -2.248501    1.515859
H-HC-0.1066    14.564284    -3.028991    0.504008
H-H-0.3529    11.870165    -4.842617    -1.337651
H-HC-0.1047    14.663327    -6.171623    -3.005951
H-HC-0.1047    13.171001    -5.474517    -3.624898
H-HC-0.1047    13.104816    -6.643509    -2.309880
H-H-0.3615    13.658076    -0.821865    -0.025803
H-H1-0.1469    13.566783    1.156892    -1.205762
H-H1-0.1469    12.377802    0.465803    -2.305240
H-H1-0.1469    14.078493    0.075193    -2.505487
H-H-0.3570    4.828120    0.684785    -0.816437
H-HC-0.1060    3.710173    3.434604    -2.706288
H-HC-0.1060    4.588171    1.902533    -2.825678
H-HC-0.1060    5.244771    3.226201    -1.873716

D * 5 7 * F
