--Link1-- 
%chk=CHI1_-110
%NoSave 
#SP HF/6-31G*  Geom=(ModRedundant)  

paramfit run
  
0    1 
C-CT--0.3208    0.000000    0.000000    0.000000
N-N--0.5622    1.448187    0.000000    0.000000
C-C-0.8053    2.123200    0.475920    1.072365
O-O--0.6151    1.590179    0.696732    2.124447
C-CX-0.0839    3.650505    0.594143    0.921539
C-CU--0.3230    4.198902    1.549248    1.986845
C-CU--0.0657    4.307751    -0.809116    1.023981
C-CU--0.0109    5.151410    -1.149953    2.265635
C-CU-0.0816    4.405386    -1.620417    3.530051
C-CM--0.2354    3.533549    -2.834988    3.313267
C-CM--0.2653    3.825528    -4.096196    3.586871
C-CU-0.1214    5.104182    -4.634057    4.183111
C-CU--0.0354    5.006318    -4.988466    5.677896
C-CU--0.0984    3.965990    -6.080509    5.960868
C-CU-0.1300    3.889474    -6.658599    7.397740
C-CU--0.3561    2.738702    -7.677548    7.428077
N-N--0.7186    5.144855    -7.335713    7.692810
C-C-0.8537    5.419333    -7.817424    8.940077
C-CT--0.3868    6.873942    -8.141900    9.192332
O-O--0.6323    4.575202    -7.974432    9.777891
C-C-0.7903    3.726642    -5.486084    8.391430
O-O--0.6136    4.689527    -4.876417    8.772333
N-N--0.5650    2.469192    -5.120837    8.722179
C-CT--0.3231    2.246374    -4.063636    9.687001
N-N--0.7191    3.997412    1.070275    -0.425452
C-C-0.8539    3.587019    2.267163    -0.934086
C-CT--0.3903    4.328148    2.727659    -2.172145
O-O--0.6290    2.697134    2.905425    -0.447397
H-H1-0.1459    -0.403259    1.006147    0.000000
H-H1-0.1459    -0.364960    -0.516002    0.875939
H-H1-0.1459    -0.345658    -0.522086    -0.883346
H-H-0.3572    1.904244    0.070913    -0.879357
H-HC-0.0997    3.932135    1.221760    2.980082
H-HC-0.0997    5.280920    1.595925    1.907500
H-HC-0.0997    3.792711    2.540594    1.848395
H-HC-0.0347    4.963502    -0.889198    0.159806
H-HC-0.0347    3.536280    -1.561057    0.890942
H-HC-0.0243    5.825734    -1.948136    1.969307
H-HC-0.0243    5.780872    -0.306419    2.529455
H-HC-0.0171    3.798998    -0.815352    3.924422
H-HC-0.0171    5.155153    -1.827898    4.285456
H-HA-0.1313    2.562948    -2.633191    2.889796
H-HA-0.1359    3.071351    -4.835648    3.367350
H-HC-0.0092    5.908062    -3.919145    4.056060
H-HC-0.0092    5.398352    -5.523017    3.626507
H-HC-0.0318    5.993140    -5.299760    6.009035
H-HC-0.0318    4.770751    -4.095802    6.242245
H-HC-0.0435    4.138665    -6.924506    5.296499
H-HC-0.0435    2.982978    -5.692689    5.720797
H-HC-0.1066    2.992605    -8.507062    6.778447
H-HC-0.1066    1.818026    -7.241923    7.053954
H-HC-0.1066    2.575999    -8.065892    8.422288
H-H-0.3529    5.936405    -6.998974    7.194045
H-HC-0.1047    6.943339    -8.836845    10.015313
H-HC-0.1047    7.390317    -7.226413    9.465032
H-HC-0.1047    7.356932    -8.559941    8.315780
H-H-0.3615    1.736092    -5.776817    8.589648
H-H1-0.1469    1.187401    -3.843627    9.720060
H-H1-0.1469    2.781546    -3.175377    9.384984
H-H1-0.1469    2.583383    -4.346260    10.679121
H-H-0.3570    4.828120    0.684785    -0.816437
H-HC-0.1060    3.710173    3.434604    -2.706288
H-HC-0.1060    4.588171    1.902533    -2.825678
H-HC-0.1060    5.244771    3.226201    -1.873716

D * 5 7 * F
