--Link1-- 
%chk=CHI1_30
%NoSave 
#SP HF/6-31G*  Geom=(ModRedundant)  

paramfit run
  
0    1 
C-CT--0.3208    0.000000    0.000000    0.000000
N-N--0.5622    1.448187    0.000000    0.000000
C-C-0.8053    2.123200    0.475920    1.072365
O-O--0.6151    1.590179    0.696732    2.124447
C-CX-0.0839    3.650505    0.594143    0.921539
C-CU--0.3230    4.198902    1.549248    1.986845
C-CU--0.0657    4.307751    -0.809116    1.023981
C-CU--0.0109    3.513032    -2.042046    0.557142
C-CU-0.0816    3.514153    -2.364924    -0.950301
C-CM--0.2354    4.893275    -2.552278    -1.537838
C-CM--0.2653    5.521841    -3.692884    -1.771677
C-CU-0.1214    5.015981    -5.090823    -1.507811
C-CU--0.0354    4.519868    -5.832457    -2.762170
C-CU--0.0984    5.621176    -6.018897    -3.814440
C-CU-0.1300    5.306804    -6.903396    -5.048733
C-CU--0.3561    6.539594    -6.875192    -5.966820
N-N--0.7186    5.071447    -8.267098    -4.594360
C-C-0.8537    4.630828    -9.237083    -5.447614
C-CT--0.3868    4.075510    -10.472367    -4.776420
O-O--0.6323    4.677820    -9.125006    -6.641084
C-C-0.7903    4.010222    -6.382667    -5.709370
O-O--0.6136    2.937124    -6.723772    -5.289802
N-N--0.5650    4.137728    -5.464602    -6.691653
C-CT--0.3231    2.966239    -4.972960    -7.387429
N-N--0.7191    3.997412    1.070275    -0.425452
C-C-0.8539    3.587019    2.267163    -0.934086
C-CT--0.3903    4.328148    2.727659    -2.172145
O-O--0.6290    2.697134    2.905425    -0.447397
H-H1-0.1459    -0.403259    1.006147    0.000000
H-H1-0.1459    -0.364960    -0.516002    0.875939
H-H1-0.1459    -0.345658    -0.522086    -0.883346
H-H-0.3572    1.904244    0.070913    -0.879357
H-HC-0.0997    3.932135    1.221760    2.980082
H-HC-0.0997    5.280920    1.595925    1.907500
H-HC-0.0997    3.792711    2.540594    1.848395
H-HC-0.0347    4.529671    -0.952270    2.079197
H-HC-0.0347    5.265146    -0.778873    0.513335
H-HC-0.0243    3.940229    -2.896636    1.073669
H-HC-0.0243    2.484239    -1.969829    0.894401
H-HC-0.0171    2.999353    -1.585680    -1.497222
H-HC-0.0171    2.924389    -3.264805    -1.085313
H-HA-0.1313    5.409996    -1.641697    -1.794656
H-HA-0.1359    6.508462    -3.632515    -2.203759
H-HC-0.0092    4.208835    -5.068475    -0.785674
H-HC-0.0092    5.817640    -5.667932    -1.048591
H-HC-0.0318    4.123526    -6.792485    -2.443371
H-HC-0.0318    3.685080    -5.292861    -3.189717
H-HC-0.0435    6.502478    -6.448045    -3.342557
H-HC-0.0435    5.912469    -5.043912    -4.187138
H-HC-0.1066    7.366137    -7.351528    -5.452513
H-HC-0.1066    6.839793    -5.856770    -6.190604
H-HC-0.1066    6.363067    -7.409846    -6.888081
H-H-0.3529    4.738876    -8.352327    -3.661170
H-HC-0.1047    4.105698    -11.296587    -5.472704
H-HC-0.1047    3.041205    -10.283277    -4.505157
H-HC-0.1047    4.624289    -10.729946    -3.877045
H-H-0.3615    5.008717    -5.393973    -7.162503
H-H1-0.1469    3.266971    -4.166385    -8.043110
H-H1-0.1469    2.248503    -4.597324    -6.673020
H-H1-0.1469    2.490213    -5.751678    -7.974584
H-H-0.3570    4.828120    0.684785    -0.816437
H-HC-0.1060    3.710173    3.434604    -2.706288
H-HC-0.1060    4.588171    1.902533    -2.825678
H-HC-0.1060    5.244771    3.226201    -1.873716

D * 5 7 * F
