--Link1-- 
%chk=CHI1_140
%NoSave 
#SP HF/6-31G*  Geom=(ModRedundant)  

paramfit run
  
0    1 
C-CT--0.3208    0.000000    0.000000    0.000000
N-N--0.5622    1.448187    0.000000    0.000000
C-C-0.8053    2.123200    0.475920    1.072365
O-O--0.6151    1.590179    0.696732    2.124447
C-CX-0.0839    3.650505    0.594143    0.921539
C-CU--0.3230    4.198902    1.549248    1.986845
C-CU--0.0657    4.307751    -0.809116    1.023981
C-CU--0.0109    5.476649    -1.156841    0.084622
C-CU-0.0816    6.885788    -0.680617    0.489808
C-CM--0.2354    7.330269    -1.163501    1.850520
C-CM--0.2653    8.112288    -2.195195    2.124035
C-CU-0.1214    8.753666    -3.146706    1.142701
C-CU--0.0354    10.248803    -2.882651    0.888920
C-CU--0.0984    11.098197    -3.017479    2.159850
C-CU-0.1300    12.640756    -2.952708    2.015063
C-CU--0.3561    13.244408    -3.049174    3.425648
N-N--0.7186    13.080321    -4.091482    1.220388
C-C-0.8537    14.375613    -4.216203    0.808415
C-CT--0.3868    14.597844    -5.217370    -0.302027
O-O--0.6323    15.275054    -3.582805    1.286907
C-C-0.7903    13.009207    -1.659527    1.253058
O-O--0.6136    12.973940    -1.632837    0.052236
N-N--0.5650    13.265427    -0.555813    1.988006
C-CT--0.3231    13.666416    0.675780    1.339478
N-N--0.7191    3.997412    1.070275    -0.425452
C-C-0.8539    3.587019    2.267163    -0.934086
C-CT--0.3903    4.328148    2.727659    -2.172145
O-O--0.6290    2.697134    2.905425    -0.447397
H-H1-0.1459    -0.403259    1.006147    0.000000
H-H1-0.1459    -0.364960    -0.516002    0.875939
H-H1-0.1459    -0.345658    -0.522086    -0.883346
H-H-0.3572    1.904244    0.070913    -0.879357
H-HC-0.0997    3.932135    1.221760    2.980082
H-HC-0.0997    5.280920    1.595925    1.907500
H-HC-0.0997    3.792711    2.540594    1.848395
H-HC-0.0347    3.511070    -1.521240    0.820509
H-HC-0.0347    4.607518    -0.974408    2.054078
H-HC-0.0243    5.505573    -2.240526    0.018214
H-HC-0.0243    5.265932    -0.799272    -0.917933
H-HC-0.0171    6.933778    0.400325    0.464827
H-HC-0.0171    7.572947    -1.028298    -0.273582
H-HA-0.1313    6.962408    -0.587617    2.684277
H-HA-0.1359    8.327989    -2.388497    3.163202
H-HC-0.0092    8.236718    -3.110601    0.191424
H-HC-0.0092    8.631429    -4.162833    1.515711
H-HC-0.0318    10.582565    -3.579737    0.125344
H-HC-0.0318    10.370278    -1.894980    0.463971
H-HC-0.0435    10.872477    -3.964066    2.646222
H-HC-0.0435    10.810256    -2.235969    2.853162
H-HC-0.1066    13.016963    -4.026886    3.834218
H-HC-0.1066    12.809709    -2.310077    4.090594
H-HC-0.1066    14.317643    -2.932438    3.408987
H-H-0.3529    12.405719    -4.451439    0.584734
H-HC-0.1047    15.634031    -5.519653    -0.303046
H-HC-0.1047    14.374024    -4.737693    -1.250151
H-HC-0.1047    13.960252    -6.088796    -0.199672
H-H-0.3615    13.518444    -0.670683    2.940947
H-H1-0.1469    13.704075    1.461270    2.082788
H-H1-0.1469    12.943434    0.941529    0.582312
H-H1-0.1469    14.639304    0.584094    0.867423
H-H-0.3570    4.828120    0.684785    -0.816437
H-HC-0.1060    3.710173    3.434604    -2.706288
H-HC-0.1060    4.588171    1.902533    -2.825678
H-HC-0.1060    5.244771    3.226201    -1.873716

D * 5 7 * F
