--Link1-- 
%chk=CHI1_40
%NoSave 
#SP HF/6-31G*  Geom=(ModRedundant)  

paramfit run
  
0    1 
C-CT--0.3208    0.000000    0.000000    0.000000
N-N--0.5622    1.448187    0.000000    0.000000
C-C-0.8053    2.123200    0.475920    1.072365
O-O--0.6151    1.590179    0.696732    2.124447
C-CX-0.0839    3.650505    0.594143    0.921539
C-CU--0.3230    4.198902    1.549248    1.986845
C-CU--0.0657    4.307751    -0.809116    1.023981
C-CU--0.0109    3.617284    -2.008364    0.349671
C-CU-0.0816    3.859862    -2.218184    -1.158231
C-CM--0.2354    5.316961    -2.353519    -1.533495
C-CM--0.2653    5.993975    -3.469999    -1.747694
C-CU-0.1214    5.477267    -4.886529    -1.668882
C-CU--0.0354    5.196437    -5.535573    -3.036157
C-CU--0.0984    6.451897    -5.636990    -3.912768
C-CU-0.1300    6.349868    -6.428969    -5.242056
C-CU--0.3561    7.710466    -6.325580    -5.950247
N-N--0.7186    6.069887    -7.824003    -4.930574
C-C-0.8537    5.785034    -8.730291    -5.910655
C-CT--0.3868    5.152934    -10.015202    -5.426651
O-O--0.6323    6.016268    -8.529469    -7.070544
C-C-0.7903    5.163846    -5.867860    -6.058901
O-O--0.6136    4.044363    -6.245287    -5.839276
N-N--0.5650    5.427627    -4.878554    -6.939625
C-CT--0.3231    4.371140    -4.343131    -7.773506
N-N--0.7191    3.997412    1.070275    -0.425452
C-C-0.8539    3.587019    2.267163    -0.934086
C-CT--0.3903    4.328148    2.727659    -2.172145
O-O--0.6290    2.697134    2.905425    -0.447397
H-H1-0.1459    -0.403259    1.006147    0.000000
H-H1-0.1459    -0.364960    -0.516002    0.875939
H-H1-0.1459    -0.345658    -0.522086    -0.883346
H-H-0.3572    1.904244    0.070913    -0.879357
H-HC-0.0997    3.932135    1.221760    2.980082
H-HC-0.0997    5.280920    1.595925    1.907500
H-HC-0.0997    3.792711    2.540594    1.848395
H-HC-0.0347    4.364247    -1.029124    2.087761
H-HC-0.0347    5.332594    -0.735562    0.673887
H-HC-0.0243    3.973078    -2.896588    0.863565
H-HC-0.0243    2.547298    -1.967247    0.525204
H-HC-0.0171    3.423614    -1.403327    -1.721312
H-HC-0.0171    3.314118    -3.108841    -1.449312
H-HA-0.1313    5.851706    -1.423452    -1.639032
H-HA-0.1359    7.034865    -3.372083    -2.013628
H-HC-0.0092    4.566796    -4.922525    -1.083039
H-HC-0.0092    6.207030    -5.491669    -1.132369
H-HC-0.0318    4.771724    -6.518881    -2.854225
H-HC-0.0318    4.429649    -4.970386    -3.549411
H-HC-0.0435    7.255773    -6.095074    -3.340513
H-HC-0.0435    6.781047    -4.635351    -4.163226
H-HC-0.1066    8.454443    -6.834186    -5.348250
H-HC-0.1066    8.024357    -5.291653    -6.049490
H-HC-0.1066    7.689537    -6.791200    -6.924155
H-H-0.3529    5.596902    -7.980300    -4.070011
H-HC-0.1047    5.305937    -10.785152    -6.167481
H-HC-0.1047    4.085815    -9.852659    -5.308499
H-HC-0.1047    5.558576    -10.335878    -4.473234
H-H-0.3615    6.360217    -4.768174    -7.261188
H-H1-0.1469    4.756802    -3.488325    -8.313407
H-H1-0.1469    3.544073    -4.025745    -7.155564
H-H1-0.1469    4.006377    -5.078682    -8.483201
H-H-0.3570    4.828120    0.684785    -0.816437
H-HC-0.1060    3.710173    3.434604    -2.706288
H-HC-0.1060    4.588171    1.902533    -2.825678
H-HC-0.1060    5.244771    3.226201    -1.873716

D * 5 7 * F
