--Link1-- 
%chk=CHI1_80
%NoSave 
#SP HF/6-31G*  Geom=(ModRedundant)  

paramfit run
  
0    1 
C-CT--0.3208    0.000000    0.000000    0.000000
N-N--0.5622    1.448187    0.000000    0.000000
C-C-0.8053    2.123200    0.475920    1.072365
O-O--0.6151    1.590179    0.696732    2.124447
C-CX-0.0839    3.650505    0.594143    0.921539
C-CU--0.3230    4.198902    1.549248    1.986845
C-CU--0.0657    4.307751    -0.809116    1.023981
C-CU--0.0109    4.295298    -1.731538    -0.208340
C-CU-0.0816    5.384952    -1.512523    -1.276667
C-CM--0.2354    6.795580    -1.603312    -0.743596
C-CM--0.2653    7.612825    -2.642476    -0.798409
C-CU-0.1214    7.336896    -3.996420    -1.407058
C-CU--0.0354    7.980822    -4.213356    -2.788313
C-CU--0.0984    9.511988    -4.118811    -2.749488
C-CU-0.1300    10.297410    -4.491825    -4.033473
C-CU--0.3561    11.789788    -4.254382    -3.750844
N-N--0.7186    10.076286    -5.902881    -4.319057
C-C-0.8537    10.528519    -6.476564    -5.472066
C-CT--0.3868    9.909299    -7.814988    -5.803715
O-O--0.6323    11.354990    -5.963527    -6.174122
C-C-0.7903    9.734282    -3.665365    -5.211851
O-O--0.6136    8.753437    -4.036707    -5.798347
N-N--0.5650    10.322741    -2.479061    -5.477145
C-CT--0.3231    9.877442    -1.678408    -6.599137
N-N--0.7191    3.997412    1.070275    -0.425452
C-C-0.8539    3.587019    2.267163    -0.934086
C-CT--0.3903    4.328148    2.727659    -2.172145
O-O--0.6290    2.697134    2.905425    -0.447397
H-H1-0.1459    -0.403259    1.006147    0.000000
H-H1-0.1459    -0.364960    -0.516002    0.875939
H-H1-0.1459    -0.345658    -0.522086    -0.883346
H-H-0.3572    1.904244    0.070913    -0.879357
H-HC-0.0997    3.932135    1.221760    2.980082
H-HC-0.0997    5.280920    1.595925    1.907500
H-HC-0.0997    3.792711    2.540594    1.848395
H-HC-0.0347    3.771479    -1.326572    1.816366
H-HC-0.0347    5.327134    -0.686835    1.376380
H-HC-0.0243    4.404767    -2.745353    0.165580
H-HC-0.0243    3.324570    -1.692023    -0.691557
H-HC-0.0171    5.248405    -0.551072    -1.754508
H-HC-0.0171    5.228643    -2.256013    -2.050375
H-HA-0.1313    7.165584    -0.708156    -0.270408
H-HA-0.1359    8.593627    -2.521704    -0.365740
H-HC-0.0092    6.269575    -4.155561    -1.501752
H-HC-0.0092    7.698191    -4.763373    -0.723068
H-HC-0.0318    7.662866    -5.186495    -3.152013
H-HC-0.0318    7.581524    -3.489549    -3.486521
H-HC-0.0435    9.893242    -4.758731    -1.956594
H-HC-0.0435    9.789670    -3.104031    -2.489750
H-HC-0.1066    12.112229    -4.948342    -2.983360
H-HC-0.1066    11.964042    -3.251229    -3.375744
H-HC-0.1066    12.393602    -4.420501    -4.630363
H-H-0.3529    9.220525    -6.276319    -3.977107
H-HC-0.1047    10.559916    -8.347218    -6.480834
H-HC-0.1047    8.957827    -7.642983    -6.297923
H-HC-0.1047    9.731776    -8.413662    -4.916891
H-H-0.3615    11.246346    -2.325352    -5.147543
H-H1-0.1469    10.386376    -0.724041    -6.566124
H-H1-0.1469    8.812471    -1.512442    -6.529010
H-H1-0.1469    10.087314    -2.162249    -7.547613
H-H-0.3570    4.828120    0.684785    -0.816437
H-HC-0.1060    3.710173    3.434604    -2.706288
H-HC-0.1060    4.588171    1.902533    -2.825678
H-HC-0.1060    5.244771    3.226201    -1.873716

D * 5 7 * F
