--Link1-- 
%chk=CHI1_0
%NoSave 
#SP HF/6-31G*  Geom=(ModRedundant)  

paramfit run
  
0    1 
C-CT--0.3208    0.000000    0.000000    0.000000
N-N--0.5622    1.448187    0.000000    0.000000
C-C-0.8053    2.123200    0.475920    1.072365
O-O--0.6151    1.590179    0.696732    2.124447
C-CX-0.0839    3.650505    0.594143    0.921539
C-CU--0.3230    4.198902    1.549248    1.986845
C-CU--0.0657    4.307751    -0.809116    1.023981
C-CU--0.0109    3.410270    -2.039870    1.246255
C-CU-0.0816    2.730445    -2.661864    0.010294
C-CM--0.2354    3.693663    -3.080401    -1.075669
C-CM--0.2653    4.167396    -4.293524    -1.309479
C-CU-0.1214    3.862890    -5.560767    -0.547163
C-CU--0.0354    2.863452    -6.497810    -1.249044
C-CU--0.0984    3.367683    -6.986692    -2.613471
C-CU-0.1300    2.541748    -8.074309    -3.348022
C-CU--0.3561    3.220211    -8.337573    -4.702212
N-N--0.7186    2.564156    -9.292146    -2.549333
C-C-0.8537    1.801002    -10.374925    -2.878333
C-CT--0.3868    1.635066    -11.396402    -1.776582
O-O--0.6323    1.297095    -10.512585    -3.958273
C-C-0.7903    1.077302    -7.591706    -3.453930
O-O--0.6136    0.319580    -7.748614    -2.534600
N-N--0.5650    0.726549    -6.906967    -4.563923
C-CT--0.3231    -0.642038    -6.470426    -4.749945
N-N--0.7191    3.997412    1.070275    -0.425452
C-C-0.8539    3.587019    2.267163    -0.934086
C-CT--0.3903    4.328148    2.727659    -2.172145
O-O--0.6290    2.697134    2.905425    -0.447397
H-H1-0.1459    -0.403259    1.006147    0.000000
H-H1-0.1459    -0.364960    -0.516002    0.875939
H-H1-0.1459    -0.345658    -0.522086    -0.883346
H-H-0.3572    1.904244    0.070913    -0.879357
H-HC-0.0997    3.932135    1.221760    2.980082
H-HC-0.0997    5.280920    1.595925    1.907500
H-HC-0.0997    3.792711    2.540594    1.848395
H-HC-0.0347    4.988581    -0.752569    1.870441
H-HC-0.0347    4.926678    -0.964231    0.145830
H-HC-0.0243    4.041387    -2.804252    1.690136
H-HC-0.0243    2.646940    -1.814107    1.983638
H-HC-0.0171    2.008888    -1.969785    -0.404128
H-HC-0.0171    2.160463    -3.517446    0.355160
H-HA-0.1313    4.019943    -2.288017    -1.729720
H-HA-0.1359    4.847575    -4.405717    -2.139256
H-HC-0.0092    3.473073    -5.323942    0.435396
H-HC-0.0092    4.796116    -6.097696    -0.381664
H-HC-0.0318    2.673451    -7.335944    -0.584360
H-HC-0.0318    1.915853    -5.988233    -1.364013
H-HC-0.0435    4.374862    -7.383426    -2.505175
H-HC-0.0435    3.439362    -6.136098    -3.281079
H-HC-0.1066    4.198840    -8.767085    -4.522254
H-HC-0.1066    3.366860    -7.415037    -5.254301
H-HC-0.1066    2.653177    -9.031813    -5.304078
H-H-0.3529    2.694831    -9.157247    -1.572892
H-HC-0.1047    1.359787    -12.344687    -2.212515
H-HC-0.1047    0.834633    -11.069613    -1.119587
H-HC-0.1047    2.537904    -11.510730    -1.186502
H-H-0.3615    1.285964    -7.007307    -5.377739
H-H1-0.1469    -0.687797    -5.842521    -5.630037
H-H1-0.1469    -0.962247    -5.898102    -3.891728
H-H1-0.1469    -1.318977    -7.309473    -4.874480
H-H-0.3570    4.828120    0.684785    -0.816437
H-HC-0.1060    3.710173    3.434604    -2.706288
H-HC-0.1060    4.588171    1.902533    -2.825678
H-HC-0.1060    5.244771    3.226201    -1.873716

D * 5 7 * F
