--Link1-- 
%chk=CHI1_150
%NoSave 
#SP HF/6-31G*  Geom=(ModRedundant)  

paramfit run
  
0    1 
C-CT--0.3208    0.000000    0.000000    0.000000
N-N--0.5622    1.448187    0.000000    0.000000
C-C-0.8053    2.123200    0.475920    1.072365
O-O--0.6151    1.590179    0.696732    2.124447
C-CX-0.0839    3.650505    0.594143    0.921539
C-CU--0.3230    4.198902    1.549248    1.986845
C-CU--0.0657    4.307751    -0.809116    1.023981
C-CU--0.0109    5.615074    -1.079387    0.257500
C-CU-0.0816    6.935010    -0.626681    0.912833
C-CM--0.2354    7.169351    -1.206944    2.287845
C-CM--0.2653    7.916627    -2.251697    2.605374
C-CU-0.1214    8.720001    -3.123925    1.670728
C-CU--0.0354    10.231647    -2.833285    1.675191
C-CU--0.0984    10.873892    -3.057498    3.050751
C-CU-0.1300    12.418753    -2.973429    3.155556
C-CU--0.3561    12.795802    -3.171163    4.632778
N-N--0.7186    12.996854    -4.047424    2.359399
C-C-0.8537    14.342614    -4.133835    2.148401
C-CT--0.3868    14.753129    -5.048343    1.017048
O-O--0.6323    15.145024    -3.532725    2.807146
C-C-0.7903    12.879526    -1.625080    2.556916
O-O--0.6136    13.032152    -1.509324    1.370646
N-N--0.5650    12.998485    -0.577675    3.401174
C-CT--0.3231    13.474696    0.700998    2.914945
N-N--0.7191    3.997412    1.070275    -0.425452
C-C-0.8539    3.587019    2.267163    -0.934086
C-CT--0.3903    4.328148    2.727659    -2.172145
O-O--0.6290    2.697134    2.905425    -0.447397
H-H1-0.1459    -0.403259    1.006147    0.000000
H-H1-0.1459    -0.364960    -0.516002    0.875939
H-H1-0.1459    -0.345658    -0.522086    -0.883346
H-H-0.3572    1.904244    0.070913    -0.879357
H-HC-0.0997    3.932135    1.221760    2.980082
H-HC-0.0997    5.280920    1.595925    1.907500
H-HC-0.0997    3.792711    2.540594    1.848395
H-HC-0.0347    3.565141    -1.508615    0.646550
H-HC-0.0347    4.445436    -1.048892    2.073663
H-HC-0.0243    5.672738    -2.154947    0.117986
H-HC-0.0243    5.557698    -0.649415    -0.737089
H-HC-0.0171    6.967648    0.453378    0.974244
H-HC-0.0171    7.739064    -0.912718    0.243868
H-HA-0.1313    6.665662    -0.696772    3.092914
H-HA-0.1359    7.970359    -2.520555    3.648729
H-HC-0.0092    8.357741    -3.020066    0.655126
H-HC-0.0092    8.558461    -4.165662    1.945106
H-HC-0.0318    10.692772    -3.469735    0.925078
H-HC-0.0318    10.401054    -1.816067    1.347475
H-HC-0.0435    10.591218    -4.038906    3.425542
H-HC-0.0435    10.467554    -2.331373    3.744999
H-HC-0.1066    12.524139    -4.177831    4.928413
H-HC-0.1066    12.249709    -2.486051    5.272921
H-HC-0.1066    13.856245    -3.047455    4.793701
H-H-0.3529    12.436351    -4.362894    1.601094
H-HC-0.1047    15.781773    -5.343858    1.157132
H-HC-0.1047    14.672188    -4.500726    0.082869
H-HC-0.1047    14.122517    -5.928553    0.954284
H-H-0.3615    13.101206    -0.761694    4.371172
H-H1-0.1469    13.382005    1.429210    3.709952
H-H1-0.1469    12.874629    1.018257    2.074770
H-H1-0.1469    14.510905    0.650180    2.596445
H-H-0.3570    4.828120    0.684785    -0.816437
H-HC-0.1060    3.710173    3.434604    -2.706288
H-HC-0.1060    4.588171    1.902533    -2.825678
H-HC-0.1060    5.244771    3.226201    -1.873716

D * 5 7 * F
