--Link1-- 
%chk=CHI1_20
%NoSave 
#SP HF/6-31G*  Geom=(ModRedundant)  

paramfit run
  
0    1 
C-CT--0.3208    0.000000    0.000000    0.000000
N-N--0.5622    1.448187    0.000000    0.000000
C-C-0.8053    2.123200    0.475920    1.072365
O-O--0.6151    1.590179    0.696732    2.124447
C-CX-0.0839    3.650505    0.594143    0.921539
C-CU--0.3230    4.198902    1.549248    1.986845
C-CU--0.0657    4.307751    -0.809116    1.023981
C-CU--0.0109    3.442533    -2.058775    0.780296
C-CU-0.0816    3.204642    -2.490194    -0.680500
C-CM--0.2354    4.473066    -2.743484    -1.461026
C-CM--0.2653    5.050564    -3.908736    -1.704831
C-CU-0.1214    4.584637    -5.274892    -1.261792
C-CU--0.0354    3.893168    -6.096943    -2.364365
C-CU--0.0984    4.814130    -6.378260    -3.559189
C-CU-0.1300    4.304486    -7.344459    -4.659811
C-CU--0.3561    5.377614    -7.404259    -5.759025
N-N--0.7186    4.135856    -8.667315    -4.074023
C-C-0.8537    3.561009    -9.688925    -4.773253
C-CT--0.3868    3.111246    -10.862458    -3.933409
O-O--0.6323    3.420272    -9.664602    -5.964363
C-C-0.7903    2.923072    -6.850750    -5.146297
O-O--0.6136    1.927444    -7.141922    -4.539772
N-N--0.5650    2.899622    -6.008747    -6.201978
C-CT--0.3231    1.636047    -5.548754    -6.740483
N-N--0.7191    3.997412    1.070275    -0.425452
C-C-0.8539    3.587019    2.267163    -0.934086
C-CT--0.3903    4.328148    2.727659    -2.172145
O-O--0.6290    2.697134    2.905425    -0.447397
H-H1-0.1459    -0.403259    1.006147    0.000000
H-H1-0.1459    -0.364960    -0.516002    0.875939
H-H1-0.1459    -0.345658    -0.522086    -0.883346
H-H-0.3572    1.904244    0.070913    -0.879357
H-HC-0.0997    3.932135    1.221760    2.980082
H-HC-0.0997    5.280920    1.595925    1.907500
H-HC-0.0997    3.792711    2.540594    1.848395
H-HC-0.0347    4.692119    -0.879107    2.039158
H-HC-0.0347    5.173034    -0.832554    0.368988
H-HC-0.0243    3.940846    -2.880865    1.285738
H-HC-0.0243    2.480040    -1.944517    1.268073
H-HC-0.0171    2.614610    -1.743932    -1.196562
H-HC-0.0171    2.595911    -3.387184    -0.654229
H-HA-0.1313    4.948077    -1.863004    -1.862565
H-HA-0.1359    5.957240    -3.896934    -2.289263
H-HC-0.0092    3.901301    -5.186252    -0.425932
H-HC-0.0092    5.445292    -5.830899    -0.892032
H-HC-0.0318    3.546508    -7.024312    -1.916941
H-HC-0.0318    3.004569    -5.575474    -2.694956
H-HC-0.0435    5.756262    -6.787174    -3.200428
H-HC-0.0435    5.048655    -5.438075    -4.044370
H-HC-0.1066    6.272079    -7.856206    -5.346403
H-HC-0.1066    5.644608    -6.410104    -6.102171
H-HC-0.1066    5.055323    -8.001248    -6.598949
H-H-0.3529    3.953775    -8.678827    -3.096564
H-HC-0.1047    3.026855    -11.735442    -4.562564
H-HC-0.1047    2.133587    -10.636347    -3.518461
H-HC-0.1047    3.793231    -11.063510    -3.114351
H-H-0.3615    3.686066    -5.987530    -6.807259
H-H1-0.1469    1.834420    -4.797214    -7.493315
H-H1-0.1469    1.041785    -5.109916    -5.952511
H-H1-0.1469    1.069181    -6.359702    -7.186329
H-H-0.3570    4.828120    0.684785    -0.816437
H-HC-0.1060    3.710173    3.434604    -2.706288
H-HC-0.1060    4.588171    1.902533    -2.825678
H-HC-0.1060    5.244771    3.226201    -1.873716

D * 5 7 * F
