--Link1-- 
%chk=CHI1_10
%NoSave 
#SP HF/6-31G*  Geom=(ModRedundant)  

paramfit run
  
0    1 
C-CT--0.3208    0.000000    0.000000    0.000000
N-N--0.5622    1.448187    0.000000    0.000000
C-C-0.8053    2.123200    0.475920    1.072365
O-O--0.6151    1.590179    0.696732    2.124447
C-CX-0.0839    3.650505    0.594143    0.921539
C-CU--0.3230    4.198902    1.549248    1.986845
C-CU--0.0657    4.307751    -0.809116    1.023981
C-CU--0.0109    3.407928    -2.058042    1.012350
C-CU-0.0816    2.940733    -2.590186    -0.357025
C-CM--0.2354    4.069104    -2.921326    -1.305394
C-CM--0.2653    4.594463    -4.110998    -1.549189
C-CU-0.1214    4.196340    -5.433142    -0.938299
C-CU--0.0354    3.335380    -6.320997    -1.854829
C-CU--0.0984    4.055280    -6.704159    -3.154770
C-CU-0.1300    3.373371    -7.738757    -4.087107
C-CU--0.3561    4.259832    -7.896707    -5.333176
N-N--0.7186    3.291541    -9.012494    -3.385373
C-C-0.8537    2.608083    -10.072086    -3.908064
C-CT--0.3868    2.289441    -11.173621    -2.923232
O-O--0.6323    2.281833    -10.131861    -5.060943
C-C-0.7903    1.935429    -7.257886    -4.386791
O-O--0.6136    1.046002    -7.487031    -3.611974
N-N--0.5650    1.750928    -6.494454    -5.485478
C-CT--0.3231    0.420982    -6.053017    -5.852326
N-N--0.7191    3.997412    1.070275    -0.425452
C-C-0.8539    3.587019    2.267163    -0.934086
C-CT--0.3903    4.328148    2.727659    -2.172145
O-O--0.6290    2.697134    2.905425    -0.447397
H-H1-0.1459    -0.403259    1.006147    0.000000
H-H1-0.1459    -0.364960    -0.516002    0.875939
H-H1-0.1459    -0.345658    -0.522086    -0.883346
H-H-0.3572    1.904244    0.070913    -0.879357
H-HC-0.0997    3.932135    1.221760    2.980082
H-HC-0.0997    5.280920    1.595925    1.907500
H-HC-0.0997    3.792711    2.540594    1.848395
H-HC-0.0347    4.846654    -0.811859    1.968861
H-HC-0.0347    5.059057    -0.894972    0.245234
H-HC-0.0243    3.974910    -2.849755    1.493329
H-HC-0.0243    2.534828    -1.892078    1.634867
H-HC-0.0171    2.281077    -1.873278    -0.828470
H-HC-0.0171    2.338664    -3.472259    -0.169159
H-HA-0.1313    4.479985    -2.080648    -1.840699
H-HA-0.1359    5.397946    -4.157305    -2.267542
H-HC-0.0092    3.653537    -5.272279    -0.014744
H-HC-0.0092    5.101300    -5.975620    -0.667448
H-HC-0.0318    3.058204    -7.207318    -1.290930
H-HC-0.0318    2.408792    -5.809636    -2.080161
H-HC-0.0435    5.039801    -7.102158    -2.918445
H-HC-0.0435    4.215851    -5.805862    -3.739260
H-HC-0.1066    5.205511    -8.332886    -5.033144
H-HC-0.1066    4.475119    -6.934840    -5.786877
H-HC-0.1066    3.806040    -8.547435    -6.065546
H-H-0.3529    3.265456    -8.949879    -2.393349
H-HC-0.1047    2.102186    -12.088384    -3.464715
H-HC-0.1047    1.390537    -10.901141    -2.378391
H-HC-0.1047    3.090654    -11.326434    -2.208327
H-H-0.3615    2.432452    -6.530810    -6.206251
H-H1-0.1469    0.502676    -5.361642    -6.680727
H-H1-0.1469    -0.039416    -5.547945    -5.015927
H-H1-0.1469    -0.213541    -6.884280    -6.142388
H-H-0.3570    4.828120    0.684785    -0.816437
H-HC-0.1060    3.710173    3.434604    -2.706288
H-HC-0.1060    4.588171    1.902533    -2.825678
H-HC-0.1060    5.244771    3.226201    -1.873716

D * 5 7 * F
