--Link1-- 
%chk=CHI2_90
%NoSave 
#SP HF/6-31G*  Geom=(ModRedundant)  

paramfit run
  
0    1 
C-CT--0.3208    0.000000    0.000000    0.000000
N-N--0.5622    1.448187    0.000000    0.000000
C-C-0.8053    2.123200    0.475920    1.072365
O-O--0.6151    1.590179    0.696732    2.124447
C-CX-0.0839    3.650505    0.594143    0.921539
C-CU--0.3230    4.198902    1.549248    1.986845
C-CU--0.0657    4.307751    -0.809116    1.023981
C-CU--0.0109    4.133566    -1.622781    2.319066
C-CU-0.0816    2.919700    -2.568611    2.411649
C-CM--0.2354    2.852361    -3.592699    1.303051
C-CM--0.2653    3.245247    -4.855420    1.347003
C-CU-0.1214    3.859727    -5.585575    2.517064
C-CU--0.0354    2.888021    -6.517167    3.263716
C-CU--0.0984    2.331754    -7.632884    2.368922
C-CU-0.1300    1.481559    -8.745254    3.035590
C-CU--0.3561    1.000551    -9.691822    1.923794
N-N--0.7186    2.327046    -9.480308    3.966384
C-C-0.8537    1.811022    -10.426570    4.803859
C-CT--0.3868    2.711728    -10.821463    5.951723
O-O--0.6323    0.725655    -10.912901    4.647008
C-C-0.7903    0.342442    -8.078249    3.839482
O-O--0.6136    0.543129    -7.673297    4.952885
N-N--0.5650    -0.834177    -7.882489    3.206056
C-CT--0.3231    -1.958819    -7.309283    3.916559
N-N--0.7191    3.997412    1.070275    -0.425452
C-C-0.8539    3.587019    2.267163    -0.934086
C-CT--0.3903    4.328148    2.727659    -2.172145
O-O--0.6290    2.697134    2.905425    -0.447397
H-H1-0.1459    -0.403259    1.006147    0.000000
H-H1-0.1459    -0.364960    -0.516002    0.875939
H-H1-0.1459    -0.345658    -0.522086    -0.883346
H-H-0.3572    1.904244    0.070913    -0.879357
H-HC-0.0997    3.932135    1.221760    2.980082
H-HC-0.0997    5.280920    1.595925    1.907500
H-HC-0.0997    3.792711    2.540594    1.848395
H-HC-0.0347    5.374584    -0.643250    0.891407
H-HC-0.0347    3.984642    -1.403324    0.174983
H-HC-0.0243    5.028193    -2.229739    2.423293
H-HC-0.0243    4.119543    -0.957502    3.176143
H-HC-0.0171    2.001937    -1.995019    2.419788
H-HC-0.0171    2.971999    -3.063077    3.375289
H-HA-0.1313    2.428890    -3.238950    0.376958
H-HA-0.1359    3.114163    -5.443955    0.452462
H-HC-0.0092    4.266595    -4.878470    3.229755
H-HC-0.0092    4.704118    -6.170766    2.154919
H-HC-0.0318    3.418234    -6.933391    4.115775
H-HC-0.0318    2.076462    -5.931573    3.675155
H-HC-0.0435    3.154292    -8.133538    1.862651
H-HC-0.0435    1.719075    -7.183739    1.596106
H-HC-0.1066    1.863041    -10.185006    1.490824
H-HC-0.1066    0.505983    -9.144343    1.128149
H-HC-0.1066    0.335301    -10.451164    2.306654
H-H-0.3529    3.092666    -8.967701    4.340245
H-HC-0.1047    2.411048    -11.790698    6.319468
H-HC-0.1047    2.594162    -10.094369    6.749619
H-HC-0.1047    3.756420    -10.845820    5.661193
H-H-0.3615    -1.035518    -8.430051    2.402970
H-H1-0.1469    -2.756607    -7.124681    3.209184
H-H1-0.1469    -1.665719    -6.373443    4.369243
H-H1-0.1469    -2.320421    -7.969772    4.698065
H-H-0.3570    4.828120    0.684785    -0.816437
H-HC-0.1060    3.710173    3.434604    -2.706288
H-HC-0.1060    4.588171    1.902533    -2.825678
H-HC-0.1060    5.244771    3.226201    -1.873716

D * 7 8 * F
