--Link1-- 
%chk=CHI2_-140
%NoSave 
#SP HF/6-31G*  Geom=(ModRedundant)  

paramfit run
  
0    1 
C-CT--0.3208    0.000000    0.000000    0.000000
N-N--0.5622    1.448187    0.000000    0.000000
C-C-0.8053    2.123200    0.475920    1.072365
O-O--0.6151    1.590179    0.696732    2.124447
C-CX-0.0839    3.650505    0.594143    0.921539
C-CU--0.3230    4.198902    1.549248    1.986845
C-CU--0.0657    4.307751    -0.809116    1.023981
C-CU--0.0109    4.133566    -1.622781    2.319066
C-CU-0.0816    5.352963    -2.410124    2.838488
C-CM--0.2354    6.576473    -1.558123    3.082199
C-CM--0.2653    6.997259    -1.062510    4.234615
C-CU-0.1214    6.357281    -1.225256    5.592442
C-CU--0.0354    7.051207    -2.256483    6.500519
C-CU--0.0984    8.508752    -1.888444    6.808778
C-CU-0.1300    9.270771    -2.744693    7.853197
C-CU--0.3561    10.710933    -2.212130    7.929089
N-N--0.7186    8.624139    -2.580907    9.148022
C-C-0.8537    8.991779    -3.329461    10.228562
C-CT--0.3868    8.003168    -3.326948    11.371998
O-O--0.6323    10.020297    -3.945224    10.274704
C-C-0.7903    9.163458    -4.230954    7.443027
O-O--0.6136    8.192529    -4.873203    7.740925
N-N--0.5650    10.143635    -4.733020    6.661259
C-CT--0.3231    10.130977    -6.131160    6.282779
N-N--0.7191    3.997412    1.070275    -0.425452
C-C-0.8539    3.587019    2.267163    -0.934086
C-CT--0.3903    4.328148    2.727659    -2.172145
O-O--0.6290    2.697134    2.905425    -0.447397
H-H1-0.1459    -0.403259    1.006147    0.000000
H-H1-0.1459    -0.364960    -0.516002    0.875939
H-H1-0.1459    -0.345658    -0.522086    -0.883346
H-H-0.3572    1.904244    0.070913    -0.879357
H-HC-0.0997    3.932135    1.221760    2.980082
H-HC-0.0997    5.280920    1.595925    1.907500
H-HC-0.0997    3.792711    2.540594    1.848395
H-HC-0.0347    5.374584    -0.643250    0.891407
H-HC-0.0347    3.984642    -1.403324    0.174983
H-HC-0.0243    3.850364    -0.913850    3.091615
H-HC-0.0243    3.297812    -2.307316    2.217573
H-HC-0.0171    5.605703    -3.202454    2.145886
H-HC-0.0171    5.049645    -2.900839    3.756655
H-HA-0.1313    7.166356    -1.341402    2.206308
H-HA-0.1359    7.902343    -0.475736    4.217849
H-HC-0.0092    5.318035    -1.511904    5.486289
H-HC-0.0092    6.355199    -0.257361    6.092210
H-HC-0.0318    6.470638    -2.334772    7.415497
H-HC-0.0318    7.004987    -3.231805    6.034214
H-HC-0.0435    8.554979    -0.859522    7.159086
H-HC-0.0435    9.078133    -1.928479    5.887608
H-HC-0.1066    10.687095    -1.202103    8.321336
H-HC-0.1066    11.165979    -2.167814    6.945041
H-HC-0.1066    11.324428    -2.813170    8.583393
H-H-0.3529    7.658264    -2.347186    9.113787
H-HC-0.1047    8.513125    -3.608897    12.280573
H-HC-0.1047    7.231246    -4.061647    11.163481
H-HC-0.1047    7.530007    -2.359478    11.500459
H-H-0.3615    11.018687    -4.264844    6.641104
H-H1-0.1469    10.923219    -6.302190    5.565825
H-H1-0.1469    9.183467    -6.376943    5.826225
H-H1-0.1469    10.277922    -6.781510    7.139054
H-H-0.3570    4.828120    0.684785    -0.816437
H-HC-0.1060    3.710173    3.434604    -2.706288
H-HC-0.1060    4.588171    1.902533    -2.825678
H-HC-0.1060    5.244771    3.226201    -1.873716

D * 7 8 * F
