--Link1-- 
%chk=CHI2_-50
%NoSave 
#SP HF/6-31G*  Geom=(ModRedundant)  

paramfit run
  
0    1 
C-CT--0.3208    0.000000    0.000000    0.000000
N-N--0.5622    1.448187    0.000000    0.000000
C-C-0.8053    2.123200    0.475920    1.072365
O-O--0.6151    1.590179    0.696732    2.124447
C-CX-0.0839    3.650505    0.594143    0.921539
C-CU--0.3230    4.198902    1.549248    1.986845
C-CU--0.0657    4.307751    -0.809116    1.023981
C-CU--0.0109    4.133566    -1.622781    2.319066
C-CU-0.0816    4.440488    -0.916140    3.654391
C-CM--0.2354    3.638293    0.343633    3.881842
C-CM--0.2653    2.537513    0.479208    4.603411
C-CU-0.1214    1.809533    -0.593138    5.377927
C-CU--0.0354    2.057892    -0.557003    6.896669
C-CU--0.0984    1.596648    0.757049    7.541211
C-CU-0.1300    1.624086    0.858226    9.088356
C-CU--0.3561    1.178986    2.279620    9.469113
N-N--0.7186    0.680133    -0.107996    9.633239
C-C-0.8537    0.595828    -0.344089    10.974958
C-CT--0.3868    -0.132035    -1.613344    11.354448
O-O--0.6323    1.061435    0.395397    11.796855
C-C-0.7903    3.040080    0.482268    9.580637
O-O--0.6136    3.343748    -0.670861    9.728993
N-N--0.5650    3.932640    1.484445    9.732158
C-CT--0.3231    5.261212    1.207895    10.238733
N-N--0.7191    3.997412    1.070275    -0.425452
C-C-0.8539    3.587019    2.267163    -0.934086
C-CT--0.3903    4.328148    2.727659    -2.172145
O-O--0.6290    2.697134    2.905425    -0.447397
H-H1-0.1459    -0.403259    1.006147    0.000000
H-H1-0.1459    -0.364960    -0.516002    0.875939
H-H1-0.1459    -0.345658    -0.522086    -0.883346
H-H-0.3572    1.904244    0.070913    -0.879357
H-HC-0.0997    3.932135    1.221760    2.980082
H-HC-0.0997    5.280920    1.595925    1.907500
H-HC-0.0997    3.792711    2.540594    1.848395
H-HC-0.0347    5.374584    -0.643250    0.891407
H-HC-0.0347    3.984642    -1.403324    0.174983
H-HC-0.0243    3.094015    -1.936045    2.347672
H-HC-0.0243    4.721140    -2.533500    2.266902
H-HC-0.0171    5.494957    -0.680131    3.715695
H-HC-0.0171    4.247374    -1.630977    4.446571
H-HA-0.1313    4.022831    1.226133    3.396624
H-HA-0.1359    2.100994    1.464296    4.656453
H-HC-0.0092    2.086459    -1.574517    5.012314
H-HC-0.0092    0.741353    -0.490288    5.190824
H-HC-0.0318    1.540906    -1.405393    7.336366
H-HC-0.0318    3.110384    -0.716548    7.090668
H-HC-0.0435    0.574622    0.970033    7.235212
H-HC-0.0435    2.209823    1.564352    7.158290
H-HC-0.1066    0.144669    2.410283    9.172974
H-HC-0.1066    1.763999    3.028306    8.945081
H-HC-0.1066    1.248419    2.447602    10.533397
H-H-0.3529    0.506469    -0.901719    9.060040
H-HC-0.1047    -0.471905    -1.533814    12.375832
H-HC-0.1047    0.562318    -2.445074    11.282179
H-HC-0.1047    -0.974304    -1.812009    10.700615
H-H-0.3615    3.590534    2.410459    9.835947
H-H1-0.1469    5.852230    2.111718    10.170015
H-H1-0.1469    5.725946    0.436770    9.642064
H-H1-0.1469    5.237225    0.874720    11.271290
H-H-0.3570    4.828120    0.684785    -0.816437
H-HC-0.1060    3.710173    3.434604    -2.706288
H-HC-0.1060    4.588171    1.902533    -2.825678
H-HC-0.1060    5.244771    3.226201    -1.873716

D * 7 8 * F
