--Link1-- 
%chk=CHI2_-100
%NoSave 
#SP HF/6-31G*  Geom=(ModRedundant)  

paramfit run
  
0    1 
C-CT--0.3208    0.000000    0.000000    0.000000
N-N--0.5622    1.448187    0.000000    0.000000
C-C-0.8053    2.123200    0.475920    1.072365
O-O--0.6151    1.590179    0.696732    2.124447
C-CX-0.0839    3.650505    0.594143    0.921539
C-CU--0.3230    4.198902    1.549248    1.986845
C-CU--0.0657    4.307751    -0.809116    1.023981
C-CU--0.0109    4.133566    -1.622781    2.319066
C-CU-0.0816    5.298049    -1.617150    3.329305
C-CM--0.2354    5.701919    -0.237641    3.794195
C-CM--0.2653    5.347223    0.371782    4.913816
C-CU-0.1214    4.449210    -0.161080    6.004405
C-CU--0.0354    5.197356    -0.661903    7.253012
C-CU--0.0984    6.012787    0.443052    7.937892
C-CU-0.1300    6.671761    0.121215    9.304208
C-CU--0.3561    7.471277    1.360588    9.738004
N-N--0.7186    5.619426    -0.141884    10.276268
C-C-0.8537    5.905298    -0.594106    11.531987
C-CT--0.3868    4.729732    -1.176272    12.282940
O-O--0.6323    7.003944    -0.536901    12.010367
C-C-0.7903    7.520679    -1.161170    9.150738
O-O--0.6136    7.004480    -2.243117    9.233545
N-N--0.5650    8.821985    -1.010338    8.822358
C-CT--0.3231    9.685802    -2.167938    8.712885
N-N--0.7191    3.997412    1.070275    -0.425452
C-C-0.8539    3.587019    2.267163    -0.934086
C-CT--0.3903    4.328148    2.727659    -2.172145
O-O--0.6290    2.697134    2.905425    -0.447397
H-H1-0.1459    -0.403259    1.006147    0.000000
H-H1-0.1459    -0.364960    -0.516002    0.875939
H-H1-0.1459    -0.345658    -0.522086    -0.883346
H-H-0.3572    1.904244    0.070913    -0.879357
H-HC-0.0997    3.932135    1.221760    2.980082
H-HC-0.0997    5.280920    1.595925    1.907500
H-HC-0.0997    3.792711    2.540594    1.848395
H-HC-0.0347    5.374584    -0.643250    0.891407
H-HC-0.0347    3.984642    -1.403324    0.174983
H-HC-0.0243    3.262625    -1.214668    2.823571
H-HC-0.0243    3.888190    -2.652391    2.080177
H-HC-0.0171    6.160555    -2.114004    2.904354
H-HC-0.0171    4.990885    -2.222153    4.175152
H-HA-0.1313    6.358496    0.297217    3.127151
H-HA-0.1359    5.740229    1.362277    5.081823
H-HC-0.0092    3.839423    -0.972629    5.626232
H-HC-0.0092    3.756796    0.626837    6.298250
H-HC-0.0318    4.460866    -1.077724    7.934957
H-HC-0.0318    5.844421    -1.483839    6.976320
H-HC-0.0435    5.379486    1.313187    8.097044
H-HC-0.0435    6.805246    0.754485    7.267542
H-HC-0.1066    6.778864    2.174829    9.917323
H-HC-0.1066    8.154138    1.680688    8.957864
H-HC-0.1066    8.022824    1.180749    10.648604
H-H-0.3529    4.765902    -0.482341    9.896403
H-HC-0.1047    4.941504    -1.156216    13.341152
H-HC-0.1047    4.598617    -2.208825    11.973477
H-HC-0.1047    3.809689    -0.638429    12.081374
H-H-0.3615    9.255599    -0.135001    8.998639
H-H1-0.1469    10.644725    -1.848171    8.326703
H-H1-0.1469    9.251893    -2.883650    8.030166
H-H1-0.1469    9.831409    -2.653929    9.672242
H-H-0.3570    4.828120    0.684785    -0.816437
H-HC-0.1060    3.710173    3.434604    -2.706288
H-HC-0.1060    4.588171    1.902533    -2.825678
H-HC-0.1060    5.244771    3.226201    -1.873716

D * 7 8 * F
