--Link1-- 
%chk=CHI2_150
%NoSave 
#SP HF/6-31G*  Geom=(ModRedundant)  

paramfit run
  
0    1 
C-CT--0.3208    0.000000    0.000000    0.000000
N-N--0.5622    1.448187    0.000000    0.000000
C-C-0.8053    2.123200    0.475920    1.072365
O-O--0.6151    1.590179    0.696732    2.124447
C-CX-0.0839    3.650505    0.594143    0.921539
C-CU--0.3230    4.198902    1.549248    1.986845
C-CU--0.0657    4.307751    -0.809116    1.023981
C-CU--0.0109    4.133566    -1.622781    2.319066
C-CU-0.0816    4.132921    -3.160057    2.203234
C-CM--0.2354    5.374580    -3.728379    1.557037
C-CM--0.2653    6.433582    -4.243595    2.160216
C-CU-0.1214    6.663611    -4.390087    3.645268
C-CU--0.0354    6.445109    -5.815913    4.182711
C-CU--0.0984    7.395148    -6.840290    3.547896
C-CU-0.1300    7.404908    -8.279645    4.124790
C-CU--0.3561    8.384540    -9.111750    3.281359
N-N--0.7186    7.876258    -8.224298    5.501851
C-C-0.8537    7.852867    -9.325166    6.308449
C-CT--0.3868    8.004814    -9.037329    7.784547
O-O--0.6323    7.722297    -10.440019    5.885133
C-C-0.7903    5.955774    -8.816957    4.130347
O-O--0.6136    5.211800    -8.544145    5.033677
N-N--0.5650    5.543263    -9.505431    3.044152
C-CT--0.3231    4.214189    -10.080153    3.005949
N-N--0.7191    3.997412    1.070275    -0.425452
C-C-0.8539    3.587019    2.267163    -0.934086
C-CT--0.3903    4.328148    2.727659    -2.172145
O-O--0.6290    2.697134    2.905425    -0.447397
H-H1-0.1459    -0.403259    1.006147    0.000000
H-H1-0.1459    -0.364960    -0.516002    0.875939
H-H1-0.1459    -0.345658    -0.522086    -0.883346
H-H-0.3572    1.904244    0.070913    -0.879357
H-HC-0.0997    3.932135    1.221760    2.980082
H-HC-0.0997    5.280920    1.595925    1.907500
H-HC-0.0997    3.792711    2.540594    1.848395
H-HC-0.0347    5.374584    -0.643250    0.891407
H-HC-0.0347    3.984642    -1.403324    0.174983
H-HC-0.0243    4.958012    -1.345432    2.969439
H-HC-0.0243    3.228509    -1.314423    2.832059
H-HC-0.0171    3.263286    -3.490273    1.650010
H-HC-0.0171    4.017903    -3.556528    3.205938
H-HA-0.1313    5.380979    -3.708129    0.479232
H-HA-0.1359    7.230468    -4.608266    1.531131
H-HC-0.0092    6.015437    -3.717772    4.194203
H-HC-0.0092    7.683093    -4.078923    3.869827
H-HC-0.0318    6.573829    -5.785957    5.261093
H-HC-0.0318    5.417060    -6.108046    4.013582
H-HC-0.0435    8.417334    -6.473702    3.613342
H-HC-0.0435    7.161620    -6.921591    2.492811
H-HC-0.1066    9.384694    -8.719194    3.423391
H-HC-0.1066    8.153654    -9.037721    2.223724
H-HC-0.1066    8.384722    -10.149701    3.578676
H-H-0.3529    7.716881    -7.362152    5.970909
H-HC-0.1047    8.343904    -9.931141    8.285725
H-HC-0.1047    7.034041    -8.760607    8.184734
H-HC-0.1047    8.697687    -8.224379    7.972755
H-H-0.3615    6.229726    -9.908555    2.451220
H-H1-0.1469    4.038685    -10.479224    2.015565
H-H1-0.1469    3.479984    -9.315477    3.212927
H-H1-0.1469    4.097614    -10.874123    3.736548
H-H-0.3570    4.828120    0.684785    -0.816437
H-HC-0.1060    3.710173    3.434604    -2.706288
H-HC-0.1060    4.588171    1.902533    -2.825678
H-HC-0.1060    5.244771    3.226201    -1.873716

D * 7 8 * F
