--Link1-- 
%chk=CHI2_-120
%NoSave 
#SP HF/6-31G*  Geom=(ModRedundant)  

paramfit run
  
0    1 
C-CT--0.3208    0.000000    0.000000    0.000000
N-N--0.5622    1.448187    0.000000    0.000000
C-C-0.8053    2.123200    0.475920    1.072365
O-O--0.6151    1.590179    0.696732    2.124447
C-CX-0.0839    3.650505    0.594143    0.921539
C-CU--0.3230    4.198902    1.549248    1.986845
C-CU--0.0657    4.307751    -0.809116    1.023981
C-CU--0.0109    4.133566    -1.622781    2.319066
C-CU-0.0816    5.407196    -2.014460    3.094366
C-CM--0.2354    6.270320    -0.840117    3.492125
C-CM--0.2653    6.310278    -0.229751    4.665417
C-CU-0.1214    5.501376    -0.555750    5.897958
C-CU--0.0354    6.277623    -1.329194    6.979064
C-CU--0.0984    7.486322    -0.548827    7.512908
C-CU-0.1300    8.251458    -1.133438    8.728409
C-CU--0.3561    9.440402    -0.203521    9.020159
N-N--0.7186    7.355270    -1.149782    9.876499
C-C-0.8537    7.712169    -1.745852    11.051395
C-CT--0.3868    6.568423    -2.017897    12.001469
O-O--0.6323    8.845810    -2.034645    11.317101
C-C-0.7903    8.649344    -2.591248    8.404062
O-O--0.6136    7.863143    -3.484929    8.568837
N-N--0.5650    9.859642    -2.795207    7.840536
C-CT--0.3231    10.315599    -4.140772    7.558115
N-N--0.7191    3.997412    1.070275    -0.425452
C-C-0.8539    3.587019    2.267163    -0.934086
C-CT--0.3903    4.328148    2.727659    -2.172145
O-O--0.6290    2.697134    2.905425    -0.447397
H-H1-0.1459    -0.403259    1.006147    0.000000
H-H1-0.1459    -0.364960    -0.516002    0.875939
H-H1-0.1459    -0.345658    -0.522086    -0.883346
H-H-0.3572    1.904244    0.070913    -0.879357
H-HC-0.0997    3.932135    1.221760    2.980082
H-HC-0.0997    5.280920    1.595925    1.907500
H-HC-0.0997    3.792711    2.540594    1.848395
H-HC-0.0347    5.374584    -0.643250    0.891407
H-HC-0.0347    3.984642    -1.403324    0.174983
H-HC-0.0243    3.521691    -1.017990    2.981981
H-HC-0.0243    3.561003    -2.522273    2.117920
H-HC-0.0171    5.999208    -2.706951    2.510122
H-HC-0.0171    5.090108    -2.561313    3.975412
H-HA-0.1313    6.926879    -0.471357    2.720724
H-HA-0.1359    6.997879    0.595022    4.768929
H-HC-0.0092    4.625251    -1.133989    5.630545
H-HC-0.0092    5.131183    0.375414    6.325138
H-HC-0.0318    5.583199    -1.562359    7.781424
H-HC-0.0318    6.598259    -2.281138    6.576789
H-HC-0.0435    7.172098    0.453011    7.797721
H-HC-0.0435    8.204999    -0.432176    6.710259
H-HC-0.1066    9.057831    0.760327    9.335145
H-HC-0.1066    10.039313    -0.040246    8.130199
H-HC-0.1066    10.066108    -0.591923    9.809699
H-H-0.3529    6.386875    -1.208036    9.658485
H-HC-0.1047    6.958661    -2.128219    13.001771
H-HC-0.1047    6.090108    -2.948047    11.709646
H-HC-0.1047    5.824574    -1.228801    11.981456
H-H-0.3615    10.553329    -2.092668    7.943232
H-H1-0.1469    11.242999    -4.082066    7.003676
H-H1-0.1469    9.579494    -4.657358    6.959856
H-H1-0.1469    10.478870    -4.709871    8.467633
H-H-0.3570    4.828120    0.684785    -0.816437
H-HC-0.1060    3.710173    3.434604    -2.706288
H-HC-0.1060    4.588171    1.902533    -2.825678
H-HC-0.1060    5.244771    3.226201    -1.873716

D * 7 8 * F
