--Link1-- 
%chk=CHI2_-40
%NoSave 
#SP HF/6-31G*  Geom=(ModRedundant)  

paramfit run
  
0    1 
C-CT--0.3208    0.000000    0.000000    0.000000
N-N--0.5622    1.448187    0.000000    0.000000
C-C-0.8053    2.123200    0.475920    1.072365
O-O--0.6151    1.590179    0.696732    2.124447
C-CX-0.0839    3.650505    0.594143    0.921539
C-CU--0.3230    4.198902    1.549248    1.986845
C-CU--0.0657    4.307751    -0.809116    1.023981
C-CU--0.0109    4.133566    -1.622781    2.319066
C-CU-0.0816    4.208797    -0.861541    3.657532
C-CM--0.2354    3.214528    0.269448    3.778239
C-CM--0.2653    2.043302    0.251026    4.393582
C-CU-0.1214    1.409717    -0.906607    5.127209
C-CU--0.0354    1.507510    -0.814778    6.660692
C-CU--0.0984    0.802312    0.425395    7.226006
C-CU-0.1300    0.670406    0.549445    8.766090
C-CU--0.3561    -0.009881    1.894757    9.067415
N-N--0.7186    -0.169910    -0.537936    9.248792
C-C-0.8537    -0.343766    -0.766538    10.583173
C-CT--0.3868    -0.911818    -2.124001    10.928738
O-O--0.6323    -0.069131    0.043893    11.423958
C-C-0.7903    2.073850    0.392102    9.394034
O-O--0.6136    2.526548    -0.701850    9.599613
N-N--0.5650    2.793396    1.516469    9.599054
C-CT--0.3231    4.094965    1.444780    10.230705
N-N--0.7191    3.997412    1.070275    -0.425452
C-C-0.8539    3.587019    2.267163    -0.934086
C-CT--0.3903    4.328148    2.727659    -2.172145
O-O--0.6290    2.697134    2.905425    -0.447397
H-H1-0.1459    -0.403259    1.006147    0.000000
H-H1-0.1459    -0.364960    -0.516002    0.875939
H-H1-0.1459    -0.345658    -0.522086    -0.883346
H-H-0.3572    1.904244    0.070913    -0.879357
H-HC-0.0997    3.932135    1.221760    2.980082
H-HC-0.0997    5.280920    1.595925    1.907500
H-HC-0.0997    3.792711    2.540594    1.848395
H-HC-0.0347    5.374584    -0.643250    0.891407
H-HC-0.0347    3.984642    -1.403324    0.174983
H-HC-0.0243    3.152420    -2.085062    2.261904
H-HC-0.0243    4.849413    -2.437828    2.344262
H-HC-0.0171    5.207471    -0.472318    3.807592
H-HC-0.0171    4.048506    -1.586727    4.447625
H-HA-0.1313    3.510413    1.192559    3.306612
H-HA-0.1359    1.465365    1.161845    4.380942
H-HC-0.0092    1.859056    -1.841248    4.814150
H-HC-0.0092    0.360070    -0.964319    4.841722
H-HC-0.0318    1.080456    -1.724209    7.074135
H-HC-0.0318    2.549293    -0.815357    6.953124
H-HC-0.0435    -0.206779    0.481863    6.823412
H-HC-0.0435    1.324784    1.309060    6.878862
H-HC-0.1066    -1.020046    1.868126    8.675702
H-HC-0.1066    0.506518    2.714488    8.578791
H-HC-0.1066    -0.065102    2.084829    10.128812
H-H-0.3529    -0.172294    -1.355888    8.683407
H-HC-0.1047    -1.353363    -2.082135    11.912784
H-HC-0.1047    -0.100387    -2.845488    10.941479
H-HC-0.1047    -1.651653    -2.452737    10.206963
H-H-0.3615    2.312303    2.383394    9.647024
H-H1-0.1469    4.552305    2.424702    10.191819
H-H1-0.1469    4.720313    0.742720    9.699029
H-H1-0.1469    4.023442    1.125038    11.265308
H-H-0.3570    4.828120    0.684785    -0.816437
H-HC-0.1060    3.710173    3.434604    -2.706288
H-HC-0.1060    4.588171    1.902533    -2.825678
H-HC-0.1060    5.244771    3.226201    -1.873716

D * 7 8 * F
