--Link1-- 
%chk=CHI2_70
%NoSave 
#SP HF/6-31G*  Geom=(ModRedundant)  

paramfit run
  
0    1 
C-CT--0.3208    0.000000    0.000000    0.000000
N-N--0.5622    1.448187    0.000000    0.000000
C-C-0.8053    2.123200    0.475920    1.072365
O-O--0.6151    1.590179    0.696732    2.124447
C-CX-0.0839    3.650505    0.594143    0.921539
C-CU--0.3230    4.198902    1.549248    1.986845
C-CU--0.0657    4.307751    -0.809116    1.023981
C-CU--0.0109    4.133566    -1.622781    2.319066
C-CU-0.0816    2.732604    -2.188667    2.625193
C-CM--0.2354    2.176852    -3.076481    1.536522
C-CM--0.2653    2.186143    -4.398841    1.491413
C-CU-0.1214    2.756116    -5.348523    2.517565
C-CU--0.0354    1.701534    -6.012451    3.421236
C-CU--0.0984    0.696691    -6.862997    2.632709
C-CU-0.1300    -0.310285    -7.729132    3.432993
C-CU--0.3561    -1.233052    -8.425047    2.419260
N-N--0.7186    0.433633    -8.733462    4.180948
C-C-0.8537    -0.180773    -9.546850    5.088672
C-CT--0.3868    0.752181    -10.255715    6.043614
O-O--0.6323    -1.370672    -9.693375    5.131253
C-C-0.7903    -1.046537    -6.820117    4.443118
O-O--0.6136    -0.544921    -6.562736    5.504280
N-N--0.5650    -2.206945    -6.257039    4.042647
C-CT--0.3231    -2.973259    -5.435740    4.957214
N-N--0.7191    3.997412    1.070275    -0.425452
C-C-0.8539    3.587019    2.267163    -0.934086
C-CT--0.3903    4.328148    2.727659    -2.172145
O-O--0.6290    2.697134    2.905425    -0.447397
H-H1-0.1459    -0.403259    1.006147    0.000000
H-H1-0.1459    -0.364960    -0.516002    0.875939
H-H1-0.1459    -0.345658    -0.522086    -0.883346
H-H-0.3572    1.904244    0.070913    -0.879357
H-HC-0.0997    3.932135    1.221760    2.980082
H-HC-0.0997    5.280920    1.595925    1.907500
H-HC-0.0997    3.792711    2.540594    1.848395
H-HC-0.0347    5.374584    -0.643250    0.891407
H-HC-0.0347    3.984642    -1.403324    0.174983
H-HC-0.0243    4.816336    -2.464389    2.247375
H-HC-0.0243    4.464233    -1.038585    3.171561
H-HC-0.0171    2.038022    -1.379763    2.811190
H-HC-0.0171    2.806402    -2.739641    3.556222
H-HA-0.1313    1.719553    -2.557104    0.709939
H-HA-0.1359    1.734810    -4.865943    0.630092
H-HC-0.0092    3.469529    -4.834450    3.150208
H-HC-0.0092    3.316349    -6.124480    1.997349
H-HC-0.0318    2.228058    -6.617067    4.154438
H-HC-0.0318    1.180924    -5.248668    3.983759
H-HC-0.0435    1.235774    -7.542439    1.975988
H-HC-0.0435    0.116073    -6.208651    1.993128
H-HC-0.1066    -0.641389    -9.113496    1.827186
H-HC-0.1066    -1.677937    -7.708704    1.736391
H-HC-0.1066    -2.012916    -8.987450    2.910436
H-H-0.3529    1.368462    -8.485170    4.411506
H-HC-0.1047    0.251382    -11.121488    6.449446
H-HC-0.1047    0.993119    -9.579092    6.858018
H-HC-0.1047    1.676725    -10.556816    5.563054
H-H-0.3615    -2.696407    -6.670979    3.284761
H-H1-0.1469    -3.793586    -4.986132    4.413304
H-H1-0.1469    -2.345711    -4.653511    5.358371
H-H1-0.1469    -3.368972    -6.015985    5.784548
H-H-0.3570    4.828120    0.684785    -0.816437
H-HC-0.1060    3.710173    3.434604    -2.706288
H-HC-0.1060    4.588171    1.902533    -2.825678
H-HC-0.1060    5.244771    3.226201    -1.873716

D * 7 8 * F
