--Link1-- 
%chk=CHI2_20
%NoSave 
#SP HF/6-31G*  Geom=(ModRedundant)  

paramfit run
  
0    1 
C-CT--0.3208    0.000000    0.000000    0.000000
N-N--0.5622    1.448187    0.000000    0.000000
C-C-0.8053    2.123200    0.475920    1.072365
O-O--0.6151    1.590179    0.696732    2.124447
C-CX-0.0839    3.650505    0.594143    0.921539
C-CU--0.3230    4.198902    1.549248    1.986845
C-CU--0.0657    4.307751    -0.809116    1.023981
C-CU--0.0109    4.133566    -1.622781    2.319066
C-CU-0.0816    2.963387    -1.245200    3.248986
C-CM--0.2354    1.608673    -1.290879    2.581947
C-CM--0.2653    0.717466    -2.267562    2.632903
C-CU-0.1214    0.834705    -3.579899    3.370318
C-CU--0.0354    0.045111    -3.637675    4.690457
C-CU--0.0984    -1.464188    -3.449537    4.486659
C-CU-0.1300    -2.395950    -3.661749    5.707900
C-CU--0.3561    -3.832685    -3.354631    5.255218
N-N--0.7186    -2.305678    -5.054749    6.123752
C-C-0.8537    -2.908334    -5.498789    7.265107
C-CT--0.3868    -2.422180    -6.840993    7.762046
O-O--0.6323    -3.760398    -4.876604    7.836084
C-C-0.7903    -1.892645    -2.775970    6.870142
O-O--0.6136    -1.002952    -3.157957    7.581803
N-N--0.5650    -2.417461    -1.536436    6.980156
C-CT--0.3231    -2.027465    -0.673599    8.076339
N-N--0.7191    3.997412    1.070275    -0.425452
C-C-0.8539    3.587019    2.267163    -0.934086
C-CT--0.3903    4.328148    2.727659    -2.172145
O-O--0.6290    2.697134    2.905425    -0.447397
H-H1-0.1459    -0.403259    1.006147    0.000000
H-H1-0.1459    -0.364960    -0.516002    0.875939
H-H1-0.1459    -0.345658    -0.522086    -0.883346
H-H-0.3572    1.904244    0.070913    -0.879357
H-HC-0.0997    3.932135    1.221760    2.980082
H-HC-0.0997    5.280920    1.595925    1.907500
H-HC-0.0997    3.792711    2.540594    1.848395
H-HC-0.0347    5.374584    -0.643250    0.891407
H-HC-0.0347    3.984642    -1.403324    0.174983
H-HC-0.0243    3.988591    -2.655594    2.015918
H-HC-0.0243    5.052807    -1.604323    2.895285
H-HC-0.0171    3.121336    -0.257379    3.662054
H-HC-0.0171    2.989619    -1.928930    4.090212
H-HA-0.1313    1.351879    -0.417292    2.004872
H-HA-0.1359    -0.205197    -2.121712    2.093290
H-HC-0.0092    1.873485    -3.798029    3.586700
H-HC-0.0092    0.487758    -4.377477    2.714505
H-HC-0.0318    0.255327    -4.594768    5.159666
H-HC-0.0318    0.425294    -2.884214    5.367648
H-HC-0.0435    -1.811193    -4.128749    3.710906
H-HC-0.0435    -1.641586    -2.444796    4.121453
H-HC-0.1066    -4.127672    -4.089169    4.514935
H-HC-0.1066    -3.896991    -2.377801    4.787191
H-HC-0.1066    -4.529835    -3.406917    6.078010
H-H-0.3529    -1.449666    -5.509488    5.902014
H-HC-0.1047    -3.172325    -7.271494    8.407811
H-HC-0.1047    -1.513611    -6.688635    8.336864
H-HC-0.1047    -2.202395    -7.522695    6.947578
H-H-0.3615    -3.291044    -1.352745    6.546081
H-H1-0.1469    -2.460881    0.304982    7.916807
H-H1-0.1469    -0.951578    -0.582259    8.103731
H-H1-0.1469    -2.363127    -1.061043    9.032881
H-H-0.3570    4.828120    0.684785    -0.816437
H-HC-0.1060    3.710173    3.434604    -2.706288
H-HC-0.1060    4.588171    1.902533    -2.825678
H-HC-0.1060    5.244771    3.226201    -1.873716

D * 7 8 * F
