--Link1-- 
%chk=CHI2_10
%NoSave 
#SP HF/6-31G*  Geom=(ModRedundant)  

paramfit run
  
0    1 
C-CT--0.3208    0.000000    0.000000    0.000000
N-N--0.5622    1.448187    0.000000    0.000000
C-C-0.8053    2.123200    0.475920    1.072365
O-O--0.6151    1.590179    0.696732    2.124447
C-CX-0.0839    3.650505    0.594143    0.921539
C-CU--0.3230    4.198902    1.549248    1.986845
C-CU--0.0657    4.307751    -0.809116    1.023981
C-CU--0.0109    4.133566    -1.622781    2.319066
C-CU-0.0816    3.120451    -1.103998    3.358825
C-CM--0.2354    1.719079    -0.934880    2.820461
C-CM--0.2653    0.702268    -1.772828    2.941686
C-CU-0.1214    0.691451    -3.107290    3.647978
C-CU--0.0354    0.024467    -3.084655    5.035127
C-CU--0.0984    -1.452950    -2.674070    4.975374
C-CU-0.1300    -2.291607    -2.780929    6.275329
C-CU--0.3561    -3.702543    -2.256629    5.962565
N-N--0.7186    -2.369893    -4.182765    6.662958
C-C-0.8537    -2.925676    -4.564586    7.849708
C-CT--0.3868    -2.599225    -5.975798    8.281811
O-O--0.6323    -3.621917    -3.840583    8.505612
C-C-0.7903    -1.560644    -2.008608    7.396907
O-O--0.6136    -0.676155    -2.534373    8.017536
N-N--0.5650    -1.885437    -0.709354    7.571344
C-CT--0.3231    -1.275423    0.058471    8.637426
N-N--0.7191    3.997412    1.070275    -0.425452
C-C-0.8539    3.587019    2.267163    -0.934086
C-CT--0.3903    4.328148    2.727659    -2.172145
O-O--0.6290    2.697134    2.905425    -0.447397
H-H1-0.1459    -0.403259    1.006147    0.000000
H-H1-0.1459    -0.364960    -0.516002    0.875939
H-H1-0.1459    -0.345658    -0.522086    -0.883346
H-H-0.3572    1.904244    0.070913    -0.879357
H-HC-0.0997    3.932135    1.221760    2.980082
H-HC-0.0997    5.280920    1.595925    1.907500
H-HC-0.0997    3.792711    2.540594    1.848395
H-HC-0.0347    5.374584    -0.643250    0.891407
H-HC-0.0347    3.984642    -1.403324    0.174983
H-HC-0.0243    3.811555    -2.615234    2.017463
H-HC-0.0243    5.093789    -1.753199    2.807263
H-HC-0.0171    3.458558    -0.160829    3.768069
H-HC-0.0171    3.121776    -1.806263    4.185055
H-HA-0.1313    1.542422    -0.018337    2.281151
H-HA-0.1359    -0.233865    -1.480370    2.492371
H-HC-0.0092    1.702135    -3.479559    3.763739
H-HC-0.0092    0.173217    -3.828449    3.017139
H-HC-0.0318    0.133225    -4.074179    5.470314
H-HC-0.0318    0.570885    -2.412521    5.683582
H-HC-0.0435    -1.964677    -3.274983    4.226660
H-HC-0.0435    -1.512982    -1.644930    4.641283
H-HC-0.1066    -4.167960    -2.920752    5.243600
H-HC-0.1066    -3.664570    -1.268799    5.515206
H-HC-0.1066    -4.322592    -2.228854    6.846028
H-H-0.3529    -1.613599    -4.750950    6.356534
H-HC-0.1047    -3.343066    -6.309729    8.989097
H-HC-0.1047    -1.629958    -5.972196    8.771334
H-HC-0.1047    -2.556526    -6.660441    7.441678
H-H-0.3615    -2.758129    -0.389382    7.223010
H-H1-0.1469    -1.572899    1.093476    8.531627
H-H1-0.1469    -0.199771    -0.008113    8.565567
H-H1-0.1469    -1.576592    -0.301256    9.616021
H-H-0.3570    4.828120    0.684785    -0.816437
H-HC-0.1060    3.710173    3.434604    -2.706288
H-HC-0.1060    4.588171    1.902533    -2.825678
H-HC-0.1060    5.244771    3.226201    -1.873716

D * 7 8 * F
