--Link1-- 
%chk=CHI2_-70
%NoSave 
#SP HF/6-31G*  Geom=(ModRedundant)  

paramfit run
  
0    1 
C-CT--0.3208    0.000000    0.000000    0.000000
N-N--0.5622    1.448187    0.000000    0.000000
C-C-0.8053    2.123200    0.475920    1.072365
O-O--0.6151    1.590179    0.696732    2.124447
C-CX-0.0839    3.650505    0.594143    0.921539
C-CU--0.3230    4.198902    1.549248    1.986845
C-CU--0.0657    4.307751    -0.809116    1.023981
C-CU--0.0109    4.133566    -1.622781    2.319066
C-CU-0.0816    4.861835    -1.121547    3.582009
C-CM--0.2354    4.514250    0.296510    3.970050
C-CM--0.2653    3.644811    0.691691    4.885837
C-CU-0.1214    2.783313    -0.177950    5.769748
C-CU--0.0354    3.293256    -0.313461    7.215832
C-CU--0.0984    3.355147    1.032312    7.950663
C-CU-0.1300    3.681244    1.019928    9.466629
C-CU--0.3561    3.743419    2.481074    9.940589
N-N--0.7186    2.607356    0.328209    10.166500
C-C-0.8537    2.694140    0.038422    11.497496
C-CT--0.3868    1.706236    -0.993722    11.990980
O-O--0.6323    3.491344    0.559624    12.226849
C-C-0.7903    4.989570    0.225715    9.681652
O-O--0.6136    4.965160    -0.973305    9.757050
N-N--0.5650    6.147500    0.920801    9.675928
C-CT--0.3231    7.405074    0.245580    9.922480
N-N--0.7191    3.997412    1.070275    -0.425452
C-C-0.8539    3.587019    2.267163    -0.934086
C-CT--0.3903    4.328148    2.727659    -2.172145
O-O--0.6290    2.697134    2.905425    -0.447397
H-H1-0.1459    -0.403259    1.006147    0.000000
H-H1-0.1459    -0.364960    -0.516002    0.875939
H-H1-0.1459    -0.345658    -0.522086    -0.883346
H-H-0.3572    1.904244    0.070913    -0.879357
H-HC-0.0997    3.932135    1.221760    2.980082
H-HC-0.0997    5.280920    1.595925    1.907500
H-HC-0.0997    3.792711    2.540594    1.848395
H-HC-0.0347    5.374584    -0.643250    0.891407
H-HC-0.0347    3.984642    -1.403324    0.174983
H-HC-0.0243    3.069642    -1.628928    2.537347
H-HC-0.0243    4.411687    -2.657457    2.147403
H-HC-0.0171    5.933018    -1.199428    3.448354
H-HC-0.0171    4.610612    -1.802351    4.387756
H-HA-0.1313    5.048081    1.063188    3.432143
H-HA-0.1359    3.530572    1.754526    5.031070
H-HC-0.0092    2.693826    -1.171411    5.347263
H-HC-0.0092    1.775942    0.236200    5.786405
H-HC-0.0318    2.636833    -1.006895    7.734130
H-HC-0.0318    4.270562    -0.777837    7.208202
H-HC-0.0435    2.402458    1.546486    7.843219
H-HC-0.0435    4.099999    1.655393    7.469710
H-HC-0.1066    2.756913    2.919351    9.844146
H-HC-0.1066    4.420008    3.065333    9.325569
H-HC-0.1066    4.043955    2.552296    10.975163
H-H-0.3529    2.112444    -0.344119    9.626362
H-HC-0.1047    1.588555    -0.887999    13.058704
H-HC-0.1047    2.104273    -1.981866    11.780588
H-HC-0.1047    0.741782    -0.901595    11.503411
H-H-0.3615    6.113727    1.896977    9.852702
H-H1-0.1469    8.212209    0.946695    9.755474
H-H1-0.1469    7.513029    -0.584989    9.240478
H-H1-0.1469    7.466183    -0.133953    10.937357
H-H-0.3570    4.828120    0.684785    -0.816437
H-HC-0.1060    3.710173    3.434604    -2.706288
H-HC-0.1060    4.588171    1.902533    -2.825678
H-HC-0.1060    5.244771    3.226201    -1.873716

D * 7 8 * F
