--Link1-- 
%chk=CHI2_160
%NoSave 
#SP HF/6-31G*  Geom=(ModRedundant)  

paramfit run
  
0    1 
C-CT--0.3208    0.000000    0.000000    0.000000
N-N--0.5622    1.448187    0.000000    0.000000
C-C-0.8053    2.123200    0.475920    1.072365
O-O--0.6151    1.590179    0.696732    2.124447
C-CX-0.0839    3.650505    0.594143    0.921539
C-CU--0.3230    4.198902    1.549248    1.986845
C-CU--0.0657    4.307751    -0.809116    1.023981
C-CU--0.0109    4.133566    -1.622781    2.319066
C-CU-0.0816    4.366917    -3.144816    2.244282
C-CM--0.2354    5.732712    -3.532722    1.728130
C-CM--0.2653    6.794396    -3.878846    2.437906
C-CU-0.1214    6.903789    -3.970774    3.941015
C-CU--0.0354    6.845464    -5.406180    4.493981
C-CU--0.0984    7.989163    -6.287871    3.974859
C-CU-0.1300    8.153963    -7.702596    4.588079
C-CU--0.3561    9.318345    -8.392458    3.858864
N-N--0.7186    8.481822    -7.560811    6.000148
C-C-0.8537    8.543409    -8.642666    6.830120
C-CT--0.3868    8.513669    -8.316612    8.305793
O-O--0.6323    8.616123    -9.769966    6.426325
C-C-0.7903    6.804054    -8.446978    4.476886
O-O--0.6136    5.947410    -8.274871    5.301791
N-N--0.5650    6.598952    -9.202558    3.376425
C-CT--0.3231    5.376814    -9.966856    3.233499
N-N--0.7191    3.997412    1.070275    -0.425452
C-C-0.8539    3.587019    2.267163    -0.934086
C-CT--0.3903    4.328148    2.727659    -2.172145
O-O--0.6290    2.697134    2.905425    -0.447397
H-H1-0.1459    -0.403259    1.006147    0.000000
H-H1-0.1459    -0.364960    -0.516002    0.875939
H-H1-0.1459    -0.345658    -0.522086    -0.883346
H-H-0.3572    1.904244    0.070913    -0.879357
H-HC-0.0997    3.932135    1.221760    2.980082
H-HC-0.0997    5.280920    1.595925    1.907500
H-HC-0.0997    3.792711    2.540594    1.848395
H-HC-0.0347    5.374584    -0.643250    0.891407
H-HC-0.0347    3.984642    -1.403324    0.174983
H-HC-0.0243    4.844745    -1.218889    3.033709
H-HC-0.0243    3.149487    -1.444229    2.739877
H-HC-0.0171    3.609845    -3.606386    1.623670
H-HC-0.0171    4.217701    -3.540926    3.242613
H-HA-0.1313    5.836561    -3.525650    0.655153
H-HA-0.1359    7.690927    -4.130493    1.893233
H-HC-0.0092    6.116549    -3.394023    4.411204
H-HC-0.0092    7.841870    -3.510256    4.248460
H-HC-0.0318    6.867365    -5.343727    5.578414
H-HC-0.0318    5.891016    -5.848420    4.240443
H-HC-0.0435    8.936694    -5.774189    4.122679
H-HC-0.0435    7.869309    -6.416214    2.905507
H-HC-0.1066    10.233265    -7.855345    4.080253
H-HC-0.1066    9.178780    -8.366816    2.783111
H-HC-0.1066    9.441499    -9.415186    4.182284
H-H-0.3529    8.155935    -6.725485    6.429960
H-HC-0.1047    8.930714    -9.144331    8.858980
H-HC-0.1047    7.479969    -8.180465    8.609197
H-HC-0.1047    9.060576    -7.408283    8.534293
H-H-0.3615    7.388927    -9.508003    2.858784
H-H1-0.1469    5.354216    -10.400127    2.242194
H-H1-0.1469    4.523304    -9.315812    3.353039
H-H1-0.1469    5.309143    -10.759851    3.971289
H-H-0.3570    4.828120    0.684785    -0.816437
H-HC-0.1060    3.710173    3.434604    -2.706288
H-HC-0.1060    4.588171    1.902533    -2.825678
H-HC-0.1060    5.244771    3.226201    -1.873716

D * 7 8 * F
