--Link1-- 
%chk=CHI2_-170
%NoSave 
#SP HF/6-31G*  Geom=(ModRedundant)  

paramfit run
  
0    1 
C-CT--0.3208    0.000000    0.000000    0.000000
N-N--0.5622    1.448187    0.000000    0.000000
C-C-0.8053    2.123200    0.475920    1.072365
O-O--0.6151    1.590179    0.696732    2.124447
C-CX-0.0839    3.650505    0.594143    0.921539
C-CU--0.3230    4.198902    1.549248    1.986845
C-CU--0.0657    4.307751    -0.809116    1.023981
C-CU--0.0109    4.133566    -1.622781    2.319066
C-CU-0.0816    4.984828    -2.897620    2.482695
C-CM--0.2354    6.473045    -2.661056    2.375346
C-CM--0.2653    7.340503    -2.520785    3.364587
C-CU-0.1214    7.056941    -2.561455    4.847049
C-CU--0.0354    7.445445    -3.884944    5.530426
C-CU--0.0984    8.945520    -4.189690    5.421714
C-CU-0.1300    9.502412    -5.399030    6.216707
C-CU--0.3561    10.999482    -5.520970    5.889047
N-N--0.7186    9.337204    -5.134628    7.639497
C-C-0.8537    9.607129    -6.088128    8.578131
C-CT--0.3868    9.037959    -5.810729    9.950684
O-O--0.6323    10.247263    -7.074213    8.339374
C-C-0.7903    8.669006    -6.649876    5.856785
O-O--0.6136    7.626111    -6.864075    6.413935
N-N--0.5650    9.107686    -7.417129    4.835577
C-CT--0.3231    8.402162    -8.631101    4.479616
N-N--0.7191    3.997412    1.070275    -0.425452
C-C-0.8539    3.587019    2.267163    -0.934086
C-CT--0.3903    4.328148    2.727659    -2.172145
O-O--0.6290    2.697134    2.905425    -0.447397
H-H1-0.1459    -0.403259    1.006147    0.000000
H-H1-0.1459    -0.364960    -0.516002    0.875939
H-H1-0.1459    -0.345658    -0.522086    -0.883346
H-H-0.3572    1.904244    0.070913    -0.879357
H-HC-0.0997    3.932135    1.221760    2.980082
H-HC-0.0997    5.280920    1.595925    1.907500
H-HC-0.0997    3.792711    2.540594    1.848395
H-HC-0.0347    5.374584    -0.643250    0.891407
H-HC-0.0347    3.984642    -1.403324    0.174983
H-HC-0.0243    4.386039    -0.955167    3.137703
H-HC-0.0243    3.089380    -1.884572    2.455138
H-HC-0.0171    4.690281    -3.637299    1.749564
H-HC-0.0171    4.742221    -3.322448    3.450423
H-HA-0.1313    6.857498    -2.606930    1.369672
H-HA-0.1359    8.373196    -2.362189    3.095972
H-HC-0.0092    6.005567    -2.379260    5.033824
H-HC-0.0092    7.595749    -1.744194    5.324924
H-HC-0.0318    7.138248    -3.822387    6.570662
H-HC-0.0318    6.869956    -4.692870    5.098107
H-HC-0.0435    9.514814    -3.319869    5.742414
H-HC-0.0435    9.190729    -4.353812    4.378983
H-HC-0.1066    11.510427    -4.644180    6.269512
H-HC-0.1066    11.165820    -5.554403    4.817321
H-HC-0.1066    11.438768    -6.393139    6.349577
H-H-0.3529    8.590652    -4.520933    7.873486
H-HC-0.1047    9.588143    -6.381423    10.683259
H-HC-0.1047    8.000739    -6.131749    9.966389
H-HC-0.1047    9.074415    -4.756336    10.202298
H-H-0.3615    10.062627    -7.352895    4.572382
H-H1-0.1469    8.835970    -9.029255    3.571759
H-H1-0.1469    7.359771    -8.409141    4.304171
H-H1-0.1469    8.466267    -9.378761    5.263612
H-H-0.3570    4.828120    0.684785    -0.816437
H-HC-0.1060    3.710173    3.434604    -2.706288
H-HC-0.1060    4.588171    1.902533    -2.825678
H-HC-0.1060    5.244771    3.226201    -1.873716

D * 7 8 * F
