--Link1-- 
%chk=CHI2_50
%NoSave 
#SP HF/6-31G*  Geom=(ModRedundant)  

paramfit run
  
0    1 
C-CT--0.3208    0.000000    0.000000    0.000000
N-N--0.5622    1.448187    0.000000    0.000000
C-C-0.8053    2.123200    0.475920    1.072365
O-O--0.6151    1.590179    0.696732    2.124447
C-CX-0.0839    3.650505    0.594143    0.921539
C-CU--0.3230    4.198902    1.549248    1.986845
C-CU--0.0657    4.307751    -0.809116    1.023981
C-CU--0.0109    4.133566    -1.622781    2.319066
C-CU-0.0816    2.704723    -1.786064    2.874387
C-CM--0.2354    1.732828    -2.406055    1.898012
C-CM--0.2653    1.348397    -3.670632    1.836251
C-CU-0.1214    1.787363    -4.808228    2.726723
C-CU--0.0354    0.760308    -5.202862    3.803286
C-CU--0.0984    -0.570545    -5.679266    3.205974
C-CU-0.1300    -1.629839    -6.274073    4.169690
C-CU--0.3561    -2.877871    -6.611132    3.337669
N-N--0.7186    -1.091902    -7.495139    4.753772
C-C-0.8537    -1.747822    -8.158076    5.750437
C-CT--0.3868    -0.909788    -9.163790    6.506110
O-O--0.6323    -2.902117    -7.962926    6.012471
C-C-0.7903    -1.880600    -5.261548    5.310144
O-O--0.6136    -1.148112    -5.227407    6.262102
N-N--0.5650    -2.877968    -4.366985    5.139865
C-CT--0.3231    -3.199284    -3.423560    6.191011
N-N--0.7191    3.997412    1.070275    -0.425452
C-C-0.8539    3.587019    2.267163    -0.934086
C-CT--0.3903    4.328148    2.727659    -2.172145
O-O--0.6290    2.697134    2.905425    -0.447397
H-H1-0.1459    -0.403259    1.006147    0.000000
H-H1-0.1459    -0.364960    -0.516002    0.875939
H-H1-0.1459    -0.345658    -0.522086    -0.883346
H-H-0.3572    1.904244    0.070913    -0.879357
H-HC-0.0997    3.932135    1.221760    2.980082
H-HC-0.0997    5.280920    1.595925    1.907500
H-HC-0.0997    3.792711    2.540594    1.848395
H-HC-0.0347    5.374584    -0.643250    0.891407
H-HC-0.0347    3.984642    -1.403324    0.174983
H-HC-0.0243    4.517933    -2.617119    2.111285
H-HC-0.0243    4.763976    -1.213783    3.101803
H-HC-0.0171    2.319727    -0.827142    3.196274
H-HC-0.0171    2.776568    -2.395063    3.768698
H-HA-0.1313    1.309390    -1.725156    1.177463
H-HA-0.1359    0.637075    -3.932761    1.068742
H-HC-0.0092    2.718817    -4.560654    3.221259
H-HC-0.0092    1.997105    -5.675562    2.101957
H-HC-0.0318    1.207670    -5.978848    4.418174
H-HC-0.0318    0.591688    -4.361203    4.462078
H-HC-0.0435    -0.376468    -6.439328    2.452200
H-HC-0.0435    -1.037904    -4.846476    2.693738
H-HC-0.1066    -2.625652    -7.398985    2.637488
H-HC-0.1066    -3.207092    -5.754770    2.758326
H-HC-0.1066    -3.689188    -6.959686    3.958970
H-H-0.3529    -0.100030    -7.538365    4.808850
H-HC-0.1047    -1.561979    -9.876231    6.987914
H-HC-0.1047    -0.343503    -8.638391    7.269263
H-HC-0.1047    -0.212131    -9.683019    5.857991
H-H-0.3615    -3.591554    -4.574204    4.481712
H-H1-0.1469    -3.934984    -2.724768    5.815038
H-H1-0.1469    -2.310973    -2.879920    6.477341
H-H1-0.1469    -3.595676    -3.920357    7.070681
H-H-0.3570    4.828120    0.684785    -0.816437
H-HC-0.1060    3.710173    3.434604    -2.706288
H-HC-0.1060    4.588171    1.902533    -2.825678
H-HC-0.1060    5.244771    3.226201    -1.873716

D * 7 8 * F
