--Link1-- 
%chk=CHI2_60
%NoSave 
#SP HF/6-31G*  Geom=(ModRedundant)  

paramfit run
  
0    1 
C-CT--0.3208    0.000000    0.000000    0.000000
N-N--0.5622    1.448187    0.000000    0.000000
C-C-0.8053    2.123200    0.475920    1.072365
O-O--0.6151    1.590179    0.696732    2.124447
C-CX-0.0839    3.650505    0.594143    0.921539
C-CU--0.3230    4.198902    1.549248    1.986845
C-CU--0.0657    4.307751    -0.809116    1.023981
C-CU--0.0109    4.133566    -1.622781    2.319066
C-CU-0.0816    2.698084    -1.987158    2.747153
C-CM--0.2354    1.921808    -2.755820    1.703682
C-CM--0.2653    1.732497    -4.063861    1.640857
C-CU-0.1214    2.247019    -5.112993    2.597070
C-CU--0.0354    1.192292    -5.640405    3.586491
C-CU--0.0984    0.006253    -6.314932    2.884181
C-CU-0.1300    -1.040646    -7.046519    3.763628
C-CU--0.3561    -2.143454    -7.574077    2.831455
N-N--0.7186    -0.387953    -8.167609    4.425957
C-C-0.8537    -1.030710    -8.906859    5.376447
C-CT--0.3868    -0.129683    -9.768628    6.231029
O-O--0.6323    -2.220455    -8.880150    5.527886
C-C-0.7903    -1.540975    -6.067236    4.849631
O-O--0.6136    -0.913182    -5.913519    5.862635
N-N--0.5650    -2.637385    -5.331276    4.566385
C-CT--0.3231    -3.188853    -4.431861    5.558926
N-N--0.7191    3.997412    1.070275    -0.425452
C-C-0.8539    3.587019    2.267163    -0.934086
C-CT--0.3903    4.328148    2.727659    -2.172145
O-O--0.6290    2.697134    2.905425    -0.447397
H-H1-0.1459    -0.403259    1.006147    0.000000
H-H1-0.1459    -0.364960    -0.516002    0.875939
H-H1-0.1459    -0.345658    -0.522086    -0.883346
H-H-0.3572    1.904244    0.070913    -0.879357
H-HC-0.0997    3.932135    1.221760    2.980082
H-HC-0.0997    5.280920    1.595925    1.907500
H-HC-0.0997    3.792711    2.540594    1.848395
H-HC-0.0347    5.374584    -0.643250    0.891407
H-HC-0.0347    3.984642    -1.403324    0.174983
H-HC-0.0243    4.675902    -2.552409    2.173186
H-HC-0.0243    4.622165    -1.115498    3.144480
H-HC-0.0171    2.149632    -1.091179    3.007510
H-HC-0.0171    2.773891    -2.567398    3.660065
H-HA-0.1313    1.473044    -2.153911    0.930099
H-HA-0.1359    1.141456    -4.437581    0.819416
H-HC-0.0092    3.082454    -4.724829    3.167020
H-HC-0.0092    2.637787    -5.948055    2.016927
H-HC-0.0318    1.688278    -6.334205    4.259553
H-HC-0.0318    0.842586    -4.824253    4.204901
H-HC-0.0435    0.378044    -7.047861    2.171355
H-HC-0.0435    -0.527247    -5.566565    2.310008
H-HC-0.1066    -1.715355    -8.325256    2.177970
H-HC-0.1066    -2.538054    -6.782955    2.202329
H-HC-0.1066    -2.949923    -8.030069    3.385907
H-H-0.3529    0.590184    -8.063845    4.571537
H-HC-0.1047    -0.713578    -10.562931    6.670587
H-HC-0.1047    0.280679    -9.155897    7.028079
H-HC-0.1047    0.693320    -10.187972    5.662523
H-H-0.3615    -3.248823    -5.649610    3.852160
H-H1-0.1469    -3.979920    -3.853716    5.099708
H-H1-0.1469    -2.419487    -3.759898    5.909881
H-H1-0.1469    -3.589187    -4.970148    6.412000
H-H-0.3570    4.828120    0.684785    -0.816437
H-HC-0.1060    3.710173    3.434604    -2.706288
H-HC-0.1060    4.588171    1.902533    -2.825678
H-HC-0.1060    5.244771    3.226201    -1.873716

D * 7 8 * F
