--Link1-- 
%chk=CHI2_-90
%NoSave 
#SP HF/6-31G*  Geom=(ModRedundant)  

paramfit run
  
0    1 
C-CT--0.3208    0.000000    0.000000    0.000000
N-N--0.5622    1.448187    0.000000    0.000000
C-C-0.8053    2.123200    0.475920    1.072365
O-O--0.6151    1.590179    0.696732    2.124447
C-CX-0.0839    3.650505    0.594143    0.921539
C-CU--0.3230    4.198902    1.549248    1.986845
C-CU--0.0657    4.307751    -0.809116    1.023981
C-CU--0.0109    4.133566    -1.622781    2.319066
C-CU-0.0816    5.185580    -1.433006    3.429871
C-CM--0.2354    5.339768    -0.003237    3.892757
C-CM--0.2653    4.797529    0.561809    4.959273
C-CU-0.1214    3.888669    -0.083167    5.977965
C-CU--0.0354    4.581896    -0.452430    7.301840
C-CU--0.0984    5.160823    0.769128    8.028169
C-CU-0.1300    5.729255    0.565299    9.456450
C-CU--0.3561    6.296400    1.914227    9.927822
N-N--0.7186    4.640273    0.162920    10.336074
C-C-0.8537    4.870440    -0.226138    11.623985
C-CT--0.3868    3.727012    -0.965058    12.280777
O-O--0.6323    5.899702    -0.001890    12.197982
C-C-0.7903    6.765931    -0.580233    9.414213
O-O--0.6136    6.406834    -1.725150    9.478588
N-N--0.5650    8.056437    -0.243993    9.200867
C-CT--0.3231    9.085570    -1.263349    9.200484
N-N--0.7191    3.997412    1.070275    -0.425452
C-C-0.8539    3.587019    2.267163    -0.934086
C-CT--0.3903    4.328148    2.727659    -2.172145
O-O--0.6290    2.697134    2.905425    -0.447397
H-H1-0.1459    -0.403259    1.006147    0.000000
H-H1-0.1459    -0.364960    -0.516002    0.875939
H-H1-0.1459    -0.345658    -0.522086    -0.883346
H-H-0.3572    1.904244    0.070913    -0.879357
H-HC-0.0997    3.932135    1.221760    2.980082
H-HC-0.0997    5.280920    1.595925    1.907500
H-HC-0.0997    3.792711    2.540594    1.848395
H-HC-0.0347    5.374584    -0.643250    0.891407
H-HC-0.0347    3.984642    -1.403324    0.174983
H-HC-0.0243    3.169400    -1.340660    2.731875
H-HC-0.0243    4.063625    -2.680269    2.086257
H-HC-0.0171    6.146905    -1.803111    3.097844
H-HC-0.0171    4.892000    -2.065634    4.260188
H-HA-0.1313    5.971035    0.613683    3.273866
H-HA-0.1359    5.025173    1.601399    5.135884
H-HC-0.0092    3.441110    -0.980346    5.567811
H-HC-0.0092    3.064852    0.598127    6.187148
H-HC-0.0318    3.853243    -0.963171    7.925204
H-HC-0.0318    5.364385    -1.173816    7.106535
H-HC-0.0435    4.395852    1.538692    8.106427
H-HC-0.0435    5.958680    1.185000    7.424163
H-HC-0.1066    5.479438    2.620081    10.022294
H-HC-0.1066    6.995280    2.321145    9.204382
H-HC-0.1066    6.780887    1.829175    10.888956
H-H-0.3529    3.884394    -0.304177    9.889778
H-HC-0.1047    3.834037    -0.900448    13.352893
H-HC-0.1047    3.776626    -2.009572    11.988107
H-HC-0.1047    2.761475    -0.570950    11.982788
H-H-0.3615    8.340029    0.687775    9.392425
H-H1-0.1469    10.019691    -0.811099    8.894201
H-H1-0.1469    8.825730    -2.043813    8.500494
H-H1-0.1469    9.210108    -1.710246    10.181568
H-H-0.3570    4.828120    0.684785    -0.816437
H-HC-0.1060    3.710173    3.434604    -2.706288
H-HC-0.1060    4.588171    1.902533    -2.825678
H-HC-0.1060    5.244771    3.226201    -1.873716

D * 7 8 * F
