--Link1-- 
%chk=CHI2_120
%NoSave 
#SP HF/6-31G*  Geom=(ModRedundant)  

paramfit run
  
0    1 
C-CT--0.3208    0.000000    0.000000    0.000000
N-N--0.5622    1.448187    0.000000    0.000000
C-C-0.8053    2.123200    0.475920    1.072365
O-O--0.6151    1.590179    0.696732    2.124447
C-CX-0.0839    3.650505    0.594143    0.921539
C-CU--0.3230    4.198902    1.549248    1.986845
C-CU--0.0657    4.307751    -0.809116    1.023981
C-CU--0.0109    4.133566    -1.622781    2.319066
C-CU-0.0816    3.444887    -2.997922    2.212560
C-CM--0.2354    4.116163    -3.948680    1.249375
C-CM--0.2653    4.965964    -4.921207    1.537101
C-CU-0.1214    5.476312    -5.320973    2.900731
C-CU--0.0354    4.810685    -6.581407    3.481948
C-CU--0.0984    5.036278    -7.825178    2.611858
C-CU-0.1300    4.572847    -9.196609    3.167784
C-CU--0.3561    4.854064    -10.254650    2.088470
N-N--0.7186    5.351957    -9.501057    4.360189
C-C-0.8537    5.062637    -10.579681    5.144995
C-CT--0.3868    5.689161    -10.553789    6.520350
O-O--0.6323    4.364955    -11.483853    4.777769
C-C-0.7903    3.086443    -9.084717    3.576206
O-O--0.6136    2.785029    -8.636173    4.649465
N-N--0.5650    2.160149    -9.410336    2.648880
C-CT--0.3231    0.750882    -9.376701    2.982104
N-N--0.7191    3.997412    1.070275    -0.425452
C-C-0.8539    3.587019    2.267163    -0.934086
C-CT--0.3903    4.328148    2.727659    -2.172145
O-O--0.6290    2.697134    2.905425    -0.447397
H-H1-0.1459    -0.403259    1.006147    0.000000
H-H1-0.1459    -0.364960    -0.516002    0.875939
H-H1-0.1459    -0.345658    -0.522086    -0.883346
H-H-0.3572    1.904244    0.070913    -0.879357
H-HC-0.0997    3.932135    1.221760    2.980082
H-HC-0.0997    5.280920    1.595925    1.907500
H-HC-0.0997    3.792711    2.540594    1.848395
H-HC-0.0347    5.374584    -0.643250    0.891407
H-HC-0.0347    3.984642    -1.403324    0.174983
H-HC-0.0243    5.131452    -1.787955    2.714742
H-HC-0.0243    3.609430    -1.030314    3.061789
H-HC-0.0171    2.409562    -2.873149    1.922909
H-HC-0.0171    3.427339    -3.425124    3.209067
H-HA-0.1313    3.859293    -3.807833    0.211929
H-HA-0.1359    5.342897    -5.506431    0.712968
H-HC-0.0092    5.340141    -4.509862    3.605730
H-HC-0.0092    6.550829    -5.486616    2.833128
H-HC-0.0318    5.206470    -6.732719    4.482364
H-HC-0.0318    3.750836    -6.401474    3.605128
H-HC-0.0435    6.096877    -7.923381    2.390455
H-HC-0.0435    4.533396    -7.679713    1.663017
H-HC-0.1066    5.925941    -10.329197    1.946680
H-HC-0.1066    4.419420    -9.969644    1.135980
H-HC-0.1066    4.484070    -11.227003    2.377212
H-H-0.3529    5.701218    -8.710863    4.852451
H-HC-0.1047    5.726316    -11.559446    6.910650
H-HC-0.1047    5.066064    -9.949683    7.172984
H-HC-0.1047    6.686222    -10.127095    6.506797
H-H-0.3615    2.433872    -9.988933    1.890190
H-H1-0.1469    0.178407    -9.549786    2.080309
H-H1-0.1469    0.493637    -8.406926    3.382090
H-H1-0.1469    0.493144    -10.130777    3.718782
H-H-0.3570    4.828120    0.684785    -0.816437
H-HC-0.1060    3.710173    3.434604    -2.706288
H-HC-0.1060    4.588171    1.902533    -2.825678
H-HC-0.1060    5.244771    3.226201    -1.873716

D * 7 8 * F
