--Link1-- 
%chk=CHI2_-130
%NoSave 
#SP HF/6-31G*  Geom=(ModRedundant)  

paramfit run
  
0    1 
C-CT--0.3208    0.000000    0.000000    0.000000
N-N--0.5622    1.448187    0.000000    0.000000
C-C-0.8053    2.123200    0.475920    1.072365
O-O--0.6151    1.590179    0.696732    2.124447
C-CX-0.0839    3.650505    0.594143    0.921539
C-CU--0.3230    4.198902    1.549248    1.986845
C-CU--0.0657    4.307751    -0.809116    1.023981
C-CU--0.0109    4.133566    -1.622781    2.319066
C-CU-0.0816    5.400557    -2.215554    2.967132
C-CM--0.2354    6.459299    -1.189882    3.297795
C-CM--0.2653    6.694378    -0.622980    4.470023
C-CU-0.1214    5.961032    -0.860516    5.768304
C-CU--0.0354    6.709607    -1.766737    6.762268
C-CU--0.0984    8.063120    -1.184493    7.191114
C-CU-0.1300    8.840649    -1.905884    8.322347
C-CU--0.3561    10.174817    -1.166467    8.513944
N-N--0.7186    8.059217    -1.822253    9.548684
C-C-0.8537    8.429281    -2.494637    10.677404
C-CT--0.3868    7.348526    -2.622735    11.726387
O-O--0.6323    9.527470    -2.951870    10.832516
C-C-0.7903    8.988968    -3.396937    7.943548
O-O--0.6136    8.098071    -4.171042    8.169369
N-N--0.5650    10.100223    -3.759499    7.267056
C-CT--0.3231    10.326028    -5.149073    6.926031
N-N--0.7191    3.997412    1.070275    -0.425452
C-C-0.8539    3.587019    2.267163    -0.934086
C-CT--0.3903    4.328148    2.727659    -2.172145
O-O--0.6290    2.697134    2.905425    -0.447397
H-H1-0.1459    -0.403259    1.006147    0.000000
H-H1-0.1459    -0.364960    -0.516002    0.875939
H-H1-0.1459    -0.345658    -0.522086    -0.883346
H-H-0.3572    1.904244    0.070913    -0.879357
H-HC-0.0997    3.932135    1.221760    2.980082
H-HC-0.0997    5.280920    1.595925    1.907500
H-HC-0.0997    3.792711    2.540594    1.848395
H-HC-0.0347    5.374584    -0.643250    0.891407
H-HC-0.0347    3.984642    -1.403324    0.174983
H-HC-0.0243    3.679660    -0.953281    3.043882
H-HC-0.0243    3.419193    -2.423988    2.160597
H-HC-0.0171    5.829113    -2.970988    2.321358
H-HC-0.0171    5.087430    -2.733648    3.866779
H-HA-0.1313    7.090532    -0.900112    2.473360
H-HA-0.1359    7.502260    0.090202    4.519602
H-HC-0.0092    4.988887    -1.298164    5.576306
H-HC-0.0092    5.771864    0.102921    6.240108
H-HC-0.0318    6.063806    -1.917717    7.622803
H-HC-0.0318    6.849156    -2.744188    6.319612
H-HC-0.0435    7.926610    -0.155523    7.516875
H-HC-0.0435    8.715655    -1.152266    6.326529
H-HC-0.1066    9.968127    -0.165945    8.875627
H-HC-0.1066    10.708349    -1.068432    7.574202
H-HC-0.1066    10.805371    -1.662307    9.236636
H-H-0.3529    7.077088    -1.733517    9.421172
H-HC-0.1047    7.807061    -2.814919    12.684444
H-HC-0.1047    6.714289    -3.465553    11.468461
H-HC-0.1047    6.730024    -1.733756    11.785987
H-H-0.3615    10.896058    -3.168075    7.313680
H-H1-0.1469    11.198061    -5.211014    6.288346
H-H1-0.1469    9.470978    -5.537337    6.392395
H-H1-0.1469    10.485357    -5.759662    7.808951
H-H-0.3570    4.828120    0.684785    -0.816437
H-HC-0.1060    3.710173    3.434604    -2.706288
H-HC-0.1060    4.588171    1.902533    -2.825678
H-HC-0.1060    5.244771    3.226201    -1.873716

D * 7 8 * F
