--Link1-- 
%chk=CHI2_130
%NoSave 
#SP HF/6-31G*  Geom=(ModRedundant)  

paramfit run
  
0    1 
C-CT--0.3208    0.000000    0.000000    0.000000
N-N--0.5622    1.448187    0.000000    0.000000
C-C-0.8053    2.123200    0.475920    1.072365
O-O--0.6151    1.590179    0.696732    2.124447
C-CX-0.0839    3.650505    0.594143    0.921539
C-CU--0.3230    4.198902    1.549248    1.986845
C-CU--0.0657    4.307751    -0.809116    1.023981
C-CU--0.0109    4.133566    -1.622781    2.319066
C-CU-0.0816    3.664794    -3.085478    2.187129
C-CM--0.2354    4.553837    -3.939567    1.313967
C-CM--0.2653    5.505262    -4.772816    1.702866
C-CU-0.1214    5.938861    -5.075602    3.117103
C-CU--0.0354    5.412024    -6.412591    3.668888
C-CU--0.0984    5.895929    -7.620801    2.855883
C-CU-0.1300    5.586728    -9.038176    3.403687
C-CU--0.3561    6.117965    -10.057209    2.382507
N-N--0.7186    6.287184    -9.209387    4.669222
C-C-0.8537    6.085632    -10.308615    5.452888
C-CT--0.3868    6.570774    -10.173173    6.878054
O-O--0.6323    5.563923    -11.310183    5.048139
C-C-0.7903    4.068294    -9.140746    3.673060
O-O--0.6136    3.606217    -8.727583    4.702482
N-N--0.5650    3.289623    -9.610922    2.674768
C-CT--0.3231    1.865542    -9.780523    2.878313
N-N--0.7191    3.997412    1.070275    -0.425452
C-C-0.8539    3.587019    2.267163    -0.934086
C-CT--0.3903    4.328148    2.727659    -2.172145
O-O--0.6290    2.697134    2.905425    -0.447397
H-H1-0.1459    -0.403259    1.006147    0.000000
H-H1-0.1459    -0.364960    -0.516002    0.875939
H-H1-0.1459    -0.345658    -0.522086    -0.883346
H-H-0.3572    1.904244    0.070913    -0.879357
H-HC-0.0997    3.932135    1.221760    2.980082
H-HC-0.0997    5.280920    1.595925    1.907500
H-HC-0.0997    3.792711    2.540594    1.848395
H-HC-0.0347    5.374584    -0.643250    0.891407
H-HC-0.0347    3.984642    -1.403324    0.174983
H-HC-0.0243    5.103577    -1.634354    2.807495
H-HC-0.0243    3.462028    -1.104273    2.995498
H-HC-0.0171    2.653886    -3.117998    1.801937
H-HC-0.0171    3.616626    -3.497733    3.188907
H-HA-0.1313    4.377094    -3.851398    0.254201
H-HA-0.1359    6.038342    -5.306848    0.931895
H-HC-0.0092    5.621245    -4.284298    3.785252
H-HC-0.0092    7.027614    -5.082348    3.151244
H-HC-0.0318    5.730570    -6.491167    4.704614
H-HC-0.0318    4.330463    -6.388839    3.691024
H-HC-0.0435    6.975521    -7.564875    2.733870
H-HC-0.0435    5.467932    -7.563086    1.861982
H-HC-0.1066    7.197808    -9.975202    2.340147
H-HC-0.1066    5.737264    -9.851498    1.387454
H-HC-0.1066    5.867769    -11.069585    2.662216
H-H-0.3529    6.470589    -8.370155    5.169986
H-HC-0.1047    6.716989    -11.157327    7.296532
H-HC-0.1047    5.808469    -9.658863    7.455549
H-HC-0.1047    7.492196    -9.604756    6.943369
H-H-0.3615    3.713978    -10.152730    1.959452
H-H1-0.1469    1.410858    -10.047495    1.933374
H-H1-0.1469    1.434068    -8.854023    3.227676
H-H1-0.1469    1.652467    -10.554734    3.608347
H-H-0.3570    4.828120    0.684785    -0.816437
H-HC-0.1060    3.710173    3.434604    -2.706288
H-HC-0.1060    4.588171    1.902533    -2.825678
H-HC-0.1060    5.244771    3.226201    -1.873716

D * 7 8 * F
