--Link1-- 
%chk=CHI2_30
%NoSave 
#SP HF/6-31G*  Geom=(ModRedundant)  

paramfit run
  
0    1 
C-CT--0.3208    0.000000    0.000000    0.000000
N-N--0.5622    1.448187    0.000000    0.000000
C-C-0.8053    2.123200    0.475920    1.072365
O-O--0.6151    1.590179    0.696732    2.124447
C-CX-0.0839    3.650505    0.594143    0.921539
C-CU--0.3230    4.198902    1.549248    1.986845
C-CU--0.0657    4.307751    -0.809116    1.023981
C-CU--0.0109    4.133566    -1.622781    2.319066
C-CU-0.0816    2.839421    -1.409362    3.129175
C-CM--0.2354    1.573845    -1.662285    2.343919
C-CM--0.2653    0.833052    -2.758628    2.339926
C-CU-0.1214    1.070312    -4.029856    3.119311
C-CU--0.0354    0.177869    -4.186049    4.363785
C-CU--0.0984    -1.317108    -4.224467    4.019573
C-CU-0.1300    -2.317945    -4.555580    5.156823
C-CU--0.3561    -3.735516    -4.468863    4.568246
N-N--0.7186    -2.065556    -5.914699    5.615765
C-C-0.8537    -2.701117    -6.427753    6.709335
C-CT--0.3868    -2.073719    -7.677391    7.283428
O-O--0.6323    -3.683967    -5.930272    7.184374
C-C-0.7903    -2.059147    -3.590528    6.335984
O-O--0.6136    -1.193689    -3.828371    7.134947
N-N--0.5650    -2.766309    -2.440294    6.365368
C-CT--0.3231    -2.609632    -1.515440    7.469135
N-N--0.7191    3.997412    1.070275    -0.425452
C-C-0.8539    3.587019    2.267163    -0.934086
C-CT--0.3903    4.328148    2.727659    -2.172145
O-O--0.6290    2.697134    2.905425    -0.447397
H-H1-0.1459    -0.403259    1.006147    0.000000
H-H1-0.1459    -0.364960    -0.516002    0.875939
H-H1-0.1459    -0.345658    -0.522086    -0.883346
H-H-0.3572    1.904244    0.070913    -0.879357
H-HC-0.0997    3.932135    1.221760    2.980082
H-HC-0.0997    5.280920    1.595925    1.907500
H-HC-0.0997    3.792711    2.540594    1.848395
H-HC-0.0347    5.374584    -0.643250    0.891407
H-HC-0.0347    3.984642    -1.403324    0.174983
H-HC-0.0243    4.168976    -2.669507    2.031438
H-HC-0.0243    4.982618    -1.461966    2.975284
H-HC-0.0171    2.813074    -0.403811    3.528595
H-HC-0.0171    2.886096    -2.070904    3.987090
H-HA-0.1313    1.247873    -0.843451    1.723139
H-HA-0.1359    -0.046639    -2.756964    1.715505
H-HC-0.0092    2.105008    -4.090105    3.434336
H-HC-0.0092    0.905507    -4.878159    2.456126
H-HC-0.0318    0.480142    -5.095712    4.875173
H-HC-0.0318    0.379824    -3.376219    5.052420
H-HC-0.0435    -1.487973    -4.957256    3.233851
H-HC-0.0435    -1.603669    -3.261512    3.613433
H-HC-0.1066    -3.850418    -5.248267    3.823996
H-HC-0.1066    -3.897042    -3.518214    4.070695
H-HC-0.1066    -4.491330    -4.612450    5.325787
H-H-0.3529    -1.135689    -6.241484    5.484351
H-HC-0.1047    -2.810318    -8.205125    7.869926
H-HC-0.1047    -1.254488    -7.385729    7.933750
H-HC-0.1047    -1.682324    -8.329822    6.510431
H-H-0.3615    -3.612989    -2.392628    5.849452
H-H1-0.1469    -3.163748    -0.613342    7.245317
H-H1-0.1469    -1.565696    -1.266590    7.591188
H-H1-0.1469    -2.973189    -1.935653    8.401338
H-H-0.3570    4.828120    0.684785    -0.816437
H-HC-0.1060    3.710173    3.434604    -2.706288
H-HC-0.1060    4.588171    1.902533    -2.825678
H-HC-0.1060    5.244771    3.226201    -1.873716

D * 7 8 * F
