--Link1-- 
%chk=CHI2_-60
%NoSave 
#SP HF/6-31G*  Geom=(ModRedundant)  

paramfit run
  
0    1 
C-CT--0.3208    0.000000    0.000000    0.000000
N-N--0.5622    1.448187    0.000000    0.000000
C-C-0.8053    2.123200    0.475920    1.072365
O-O--0.6151    1.590179    0.696732    2.124447
C-CX-0.0839    3.650505    0.594143    0.921539
C-CU--0.3230    4.198902    1.549248    1.986845
C-CU--0.0657    4.307751    -0.809116    1.023981
C-CU--0.0109    4.133566    -1.622781    2.319066
C-CU-0.0816    4.660394    -1.003695    3.628959
C-CM--0.2354    4.075966    0.352746    3.946434
C-CM--0.2653    3.076812    0.627599    4.769175
C-CU-0.1214    2.272083    -0.347767    5.594298
C-CU--0.0354    2.659232    -0.388188    7.083610
C-CU--0.0984    2.456299    0.961425    7.785235
C-CU-0.1300    2.637968    1.016659    9.324258
C-CU--0.3561    2.442887    2.477059    9.763149
N-N--0.7186    1.615361    0.183673    9.942272
C-C-0.8537    1.618825    -0.073023    11.282851
C-CT--0.3868    0.749579    -1.232729    11.712152
O-O--0.6323    2.260403    0.569066    12.067224
C-C-0.7903    4.021931    0.426238    9.677491
O-O--0.6136    4.164936    -0.762272    9.782009
N-N--0.5650    5.062114    1.283857    9.758046
C-CT--0.3231    6.375871    0.804072    10.134941
N-N--0.7191    3.997412    1.070275    -0.425452
C-C-0.8539    3.587019    2.267163    -0.934086
C-CT--0.3903    4.328148    2.727659    -2.172145
O-O--0.6290    2.697134    2.905425    -0.447397
H-H1-0.1459    -0.403259    1.006147    0.000000
H-H1-0.1459    -0.364960    -0.516002    0.875939
H-H1-0.1459    -0.345658    -0.522086    -0.883346
H-H-0.3572    1.904244    0.070913    -0.879357
H-HC-0.0997    3.932135    1.221760    2.980082
H-HC-0.0997    5.280920    1.595925    1.907500
H-HC-0.0997    3.792711    2.540594    1.848395
H-HC-0.0347    5.374584    -0.643250    0.891407
H-HC-0.0347    3.984642    -1.403324    0.174983
H-HC-0.0243    3.066140    -1.782445    2.440426
H-HC-0.0243    4.573739    -2.607458    2.200610
H-HC-0.0171    5.739281    -0.924981    3.594724
H-HC-0.0171    4.436660    -1.703587    4.426411
H-HA-0.1313    4.540632    1.182568    3.438896
H-HA-0.1359    2.796440    1.663877    4.875380
H-HC-0.0092    2.367562    -1.348953    5.191837
H-HC-0.0092    1.218140    -0.086020    5.508940
H-HC-0.0318    2.065007    -1.163842    7.558616
H-HC-0.0318    3.690011    -0.703913    7.176564
H-HC-0.0435    1.453267    1.328538    7.578625
H-HC-0.0435    3.144360    1.680977    7.357254
H-HC-0.1066    1.416537    2.764277    9.566441
H-HC-0.1066    3.081843    3.146451    9.196554
H-HC-0.1066    2.632119    2.605019    10.818400
H-H-0.3529    1.275841    -0.561012    9.377574
H-HC-0.1047    0.518768    -1.131696    12.761714
H-HC-0.1047    1.304724    -2.154255    11.564744
H-HC-0.1047    -0.168329    -1.289672    11.137186
H-H-0.3615    4.870641    2.246661    9.905207
H-H1-0.1469    7.084681    1.614008    10.023079
H-H1-0.1469    6.666376    -0.010328    9.487650
H-H1-0.1469    6.396547    0.450762    11.160854
H-H-0.3570    4.828120    0.684785    -0.816437
H-HC-0.1060    3.710173    3.434604    -2.706288
H-HC-0.1060    4.588171    1.902533    -2.825678
H-HC-0.1060    5.244771    3.226201    -1.873716

D * 7 8 * F
