--Link1-- 
%chk=CHI2_-180
%NoSave 
#SP HF/6-31G*  Geom=(ModRedundant)  

paramfit run
  
0    1 
C-CT--0.3208    0.000000    0.000000    0.000000
N-N--0.5622    1.448187    0.000000    0.000000
C-C-0.8053    2.123200    0.475920    1.072365
O-O--0.6151    1.590179    0.696732    2.124447
C-CX-0.0839    3.650505    0.594143    0.921539
C-CU--0.3230    4.198902    1.549248    1.986845
C-CU--0.0657    4.307751    -0.809116    1.023981
C-CU--0.0109    4.133566    -1.622781    2.319066
C-CU-0.0816    4.799440    -3.011574    2.386167
C-CM--0.2354    6.290415    -2.990830    2.143595
C-CM--0.2653    7.254851    -3.004156    3.049379
C-CU-0.1214    7.103487    -3.042356    4.551172
C-CU--0.0354    7.353346    -4.425806    5.178231
C-CU--0.0984    8.776305    -4.942131    4.926217
C-CU-0.1300    9.218889    -6.240075    5.650170
C-CU--0.3561    10.645981    -6.569379    5.182816
N-N--0.7186    9.223561    -5.992150    7.085455
C-C-0.8537    9.434068    -6.999185    7.982464
C-CT--0.3868    9.038208    -6.678431    9.405565
O-O--0.6323    9.898077    -8.061108    7.672371
C-C-0.7903    8.181592    -7.346726    5.353418
O-O--0.6136    7.173183    -7.421880    6.002564
N-N--0.5650    8.408650    -8.142304    4.285952
C-CT--0.3231    7.503095    -9.231156    3.981697
N-N--0.7191    3.997412    1.070275    -0.425452
C-C-0.8539    3.587019    2.267163    -0.934086
C-CT--0.3903    4.328148    2.727659    -2.172145
O-O--0.6290    2.697134    2.905425    -0.447397
H-H1-0.1459    -0.403259    1.006147    0.000000
H-H1-0.1459    -0.364960    -0.516002    0.875939
H-H1-0.1459    -0.345658    -0.522086    -0.883346
H-H-0.3572    1.904244    0.070913    -0.879357
H-HC-0.0997    3.932135    1.221760    2.980082
H-HC-0.0997    5.280920    1.595925    1.907500
H-HC-0.0997    3.792711    2.540594    1.848395
H-HC-0.0347    5.374584    -0.643250    0.891407
H-HC-0.0347    3.984642    -1.403324    0.174983
H-HC-0.0243    4.554348    -1.020746    3.119138
H-HC-0.0243    3.078850    -1.733700    2.548510
H-HC-0.0171    4.334347    -3.681033    1.674215
H-HC-0.0171    4.585446    -3.422081    3.366740
H-HA-0.1313    6.586206    -2.966558    1.107240
H-HA-0.1359    8.271102    -2.990134    2.687720
H-HC-0.0092    6.111538    -2.714445    4.837490
H-HC-0.0092    7.797524    -2.324887    4.987229
H-HC-0.0318    7.153927    -4.346800    6.243296
H-HC-0.0318    6.628667    -5.129919    4.791069
H-HC-0.0435    9.493897    -4.172953    5.203632
H-HC-0.0435    8.899510    -5.112523    3.863138
H-HC-0.1066    11.312524    -5.786414    5.525261
H-HC-0.1066    10.708091    -6.598296    4.099909
H-HC-0.1066    10.992073    -7.507937    5.589102
H-H-0.3529    8.599558    -5.282965    7.395920
H-HC-0.1047    9.562428    -7.342099    10.076235
H-HC-0.1047    7.970773    -6.845764    9.513763
H-HC-0.1047    9.251845    -5.647518    9.666257
H-H-0.3615    9.334935    -8.210466    3.935722
H-H1-0.1469    7.789852    -9.663961    3.032291
H-H1-0.1469    6.493116    -8.855655    3.907076
H-H1-0.1469    7.527158    -10.000639    4.746597
H-H-0.3570    4.828120    0.684785    -0.816437
H-HC-0.1060    3.710173    3.434604    -2.706288
H-HC-0.1060    4.588171    1.902533    -2.825678
H-HC-0.1060    5.244771    3.226201    -1.873716

D * 7 8 * F
