--Link1-- 
%chk=CHI2_-160
%NoSave 
#SP HF/6-31G*  Geom=(ModRedundant)  

paramfit run
  
0    1 
C-CT--0.3208    0.000000    0.000000    0.000000
N-N--0.5622    1.448187    0.000000    0.000000
C-C-0.8053    2.123200    0.475920    1.072365
O-O--0.6151    1.590179    0.696732    2.124447
C-CX-0.0839    3.650505    0.594143    0.921539
C-CU--0.3230    4.198902    1.549248    1.986845
C-CU--0.0657    4.307751    -0.809116    1.023981
C-CU--0.0109    4.133566    -1.622781    2.319066
C-CU-0.0816    5.141891    -2.756417    2.592533
C-CM--0.2354    6.583452    -2.305058    2.613859
C-CM--0.2653    7.325306    -2.026051    3.673371
C-CU-0.1214    6.913688    -2.088846    5.124709
C-CU--0.0354    7.424802    -3.331925    5.875096
C-CU--0.0984    8.956759    -3.414223    5.910429
C-CU-0.1300    9.606756    -4.518210    6.784136
C-CU--0.3561    11.129626    -4.422969    6.596394
N-N--0.7186    9.272990    -4.262644    8.178703
C-C-0.8537    9.589788    -5.153924    9.162733
C-CT--0.3868    8.860915    -4.945534    10.470450
O-O--0.6323    10.385746    -6.038192    9.008902
C-C-0.7903    9.001009    -5.882514    6.383550
O-O--0.6136    7.952908    -6.240491    6.849668
N-N--0.5650    9.639711    -6.590047    5.426765
C-CT--0.3231    9.154205    -7.899032    5.040702
N-N--0.7191    3.997412    1.070275    -0.425452
C-C-0.8539    3.587019    2.267163    -0.934086
C-CT--0.3903    4.328148    2.727659    -2.172145
O-O--0.6290    2.697134    2.905425    -0.447397
H-H1-0.1459    -0.403259    1.006147    0.000000
H-H1-0.1459    -0.364960    -0.516002    0.875939
H-H1-0.1459    -0.345658    -0.522086    -0.883346
H-H-0.3572    1.904244    0.070913    -0.879357
H-HC-0.0997    3.932135    1.221760    2.980082
H-HC-0.0997    5.280920    1.595925    1.907500
H-HC-0.0997    3.792711    2.540594    1.848395
H-HC-0.0347    5.374584    -0.643250    0.891407
H-HC-0.0347    3.984642    -1.403324    0.174983
H-HC-0.0243    4.209002    -0.914807    3.139249
H-HC-0.0243    3.130362    -2.033448    2.367115
H-HC-0.0171    5.027503    -3.540750    1.855578
H-HC-0.0171    4.874378    -3.199781    3.545266
H-HA-0.1313    7.048042    -2.207976    1.645951
H-HA-0.1359    8.344528    -1.720847    3.495053
H-HC-0.0092    5.834218    -2.060790    5.210864
H-HC-0.0092    7.281209    -1.195166    5.627559
H-HC-0.0318    7.016146    -3.301798    6.881311
H-HC-0.0318    7.015548    -4.221177    5.414041
H-HC-0.0435    9.361331    -2.466103    6.258169
H-HC-0.0435    9.319334    -3.553946    4.898813
H-HC-0.1066    11.470141    -3.475762    6.998177
H-HC-0.1066    11.398243    -4.445401    5.545336
H-HC-0.1066    11.646012    -5.215077    7.117594
H-H-0.3529    8.426721    -3.762395    8.328006
H-HC-0.1047    9.417404    -5.419658    11.264545
H-HC-0.1047    7.884394    -5.415310    10.400859
H-HC-0.1047    8.720285    -3.894082    10.696399
H-H-0.3615    10.595543    -6.389533    5.249311
H-H1-0.1469    9.723953    -8.240762    4.186578
H-H1-0.1469    8.111579    -7.834996    4.766006
H-H1-0.1469    9.252803    -8.618974    5.846751
H-H-0.3570    4.828120    0.684785    -0.816437
H-HC-0.1060    3.710173    3.434604    -2.706288
H-HC-0.1060    4.588171    1.902533    -2.825678
H-HC-0.1060    5.244771    3.226201    -1.873716

D * 7 8 * F
