--Link1-- 
%chk=CHI2_100
%NoSave 
#SP HF/6-31G*  Geom=(ModRedundant)  

paramfit run
  
0    1 
C-CT--0.3208    0.000000    0.000000    0.000000
N-N--0.5622    1.448187    0.000000    0.000000
C-C-0.8053    2.123200    0.475920    1.072365
O-O--0.6151    1.590179    0.696732    2.124447
C-CX-0.0839    3.650505    0.594143    0.921539
C-CU--0.3230    4.198902    1.549248    1.986845
C-CU--0.0657    4.307751    -0.809116    1.023981
C-CU--0.0109    4.133566    -1.622781    2.319066
C-CU-0.0816    3.066593    -2.735503    2.326552
C-CM--0.2354    3.252302    -3.772571    1.243833
C-CM--0.2653    3.818524    -4.963147    1.356425
C-CU-0.1214    4.420708    -5.579893    2.596084
C-CU--0.0354    3.529215    -6.634501    3.276236
C-CU--0.0984    3.226699    -7.831312    2.364622
C-CU-0.1300    2.488598    -9.047889    2.980896
C-CU--0.3561    2.255885    -10.069138    1.855575
N-N--0.7186    3.341342    -9.638607    4.003349
C-C-0.8537    2.892360    -10.639569    4.815474
C-CT--0.3868    3.729872    -10.882934    6.050039
O-O--0.6323    1.908502    -11.282148    4.574110
C-C-0.7903    1.194778    -8.545273    3.660700
O-O--0.6136    1.229858    -8.100898    4.776598
N-N--0.5650    0.066441    -8.532787    2.918622
C-CT--0.3231    -1.190797    -8.122019    3.509236
N-N--0.7191    3.997412    1.070275    -0.425452
C-C-0.8539    3.587019    2.267163    -0.934086
C-CT--0.3903    4.328148    2.727659    -2.172145
O-O--0.6290    2.697134    2.905425    -0.447397
H-H1-0.1459    -0.403259    1.006147    0.000000
H-H1-0.1459    -0.364960    -0.516002    0.875939
H-H1-0.1459    -0.345658    -0.522086    -0.883346
H-H-0.3572    1.904244    0.070913    -0.879357
H-HC-0.0997    3.932135    1.221760    2.980082
H-HC-0.0997    5.280920    1.595925    1.907500
H-HC-0.0997    3.792711    2.540594    1.848395
H-HC-0.0347    5.374584    -0.643250    0.891407
H-HC-0.0347    3.984642    -1.403324    0.174983
H-HC-0.0243    5.093179    -2.090239    2.519677
H-HC-0.0243    3.943259    -0.955797    3.153505
H-HC-0.0171    2.078559    -2.302998    2.236600
H-HC-0.0171    3.100054    -3.204443    3.303696
H-HA-0.1313    2.870164    -3.496885    0.274254
H-HA-0.1359    3.858252    -5.576042    0.469553
H-HC-0.0092    4.652368    -4.811531    3.323696
H-HC-0.0092    5.371159    -6.039220    2.327280
H-HC-0.0318    4.032466    -6.957242    4.183403
H-HC-0.0318    2.606450    -6.169315    3.597071
H-HC-0.0435    4.156788    -8.212099    1.948126
H-HC-0.0435    2.630051    -7.487113    1.528028
H-HC-0.1066    3.217408    -10.435717    1.515467
H-HC-0.1066    1.763429    -9.610612    1.004328
H-HC-0.1066    1.675162    -10.913022    2.196688
H-H-0.3529    3.986202    -9.014245    4.431181
H-HC-0.1047    3.540133    -11.881017    6.414581
H-HC-0.1047    3.434117    -10.170796    6.814574
H-HC-0.1047    4.789519    -10.757200    5.855820
H-H-0.3615    0.022489    -9.114307    2.115370
H-H1-0.1469    -1.937470    -8.065835    2.728055
H-H1-0.1469    -1.080166    -7.147503    3.961679
H-H1-0.1469    -1.523944    -8.818358    4.272046
H-H-0.3570    4.828120    0.684785    -0.816437
H-HC-0.1060    3.710173    3.434604    -2.706288
H-HC-0.1060    4.588171    1.902533    -2.825678
H-HC-0.1060    5.244771    3.226201    -1.873716

D * 7 8 * F
