--Link1-- 
%chk=CHI3_90
%NoSave 
#SP HF/6-31G*  Geom=(ModRedundant)  

paramfit run
  
0    1 
C-CT--0.3208    0.000000    0.000000    0.000000
N-N--0.5622    1.448187    0.000000    0.000000
C-C-0.8053    2.123200    0.475920    1.072365
O-O--0.6151    1.590179    0.696732    2.124447
C-CX-0.0839    3.650505    0.594143    0.921539
C-CU--0.3230    4.198902    1.549248    1.986845
C-CU--0.0657    4.307751    -0.809116    1.023981
C-CU--0.0109    4.133566    -1.622781    2.319066
C-CU-0.0816    2.832729    -2.433298    2.484965
C-CM--0.2354    2.914426    -3.843390    1.949015
C-CM--0.2653    3.138894    -4.953902    2.632487
C-CU-0.1214    3.370221    -5.086409    4.118652
C-CU--0.0354    2.149139    -5.592884    4.907325
C-CU--0.0984    1.697934    -6.991816    4.466508
C-CU-0.1300    0.592448    -7.695366    5.295703
C-CU--0.3561    0.284717    -9.038847    4.614666
N-N--0.7186    1.102920    -7.937718    6.638169
C-C-0.8537    0.298136    -8.415438    7.631730
C-CT--0.3868    0.849090    -8.256427    9.030290
O-O--0.6323    -0.767036    -8.924573    7.418816
C-C-0.7903    -0.621336    -6.744677    5.403616
O-O--0.6136    -0.646184    -5.886728    6.244588
N-N--0.5650    -1.583433    -6.854613    4.462200
C-CT--0.3231    -2.771759    -6.029387    4.533506
N-N--0.7191    3.997412    1.070275    -0.425452
C-C-0.8539    3.587019    2.267163    -0.934086
C-CT--0.3903    4.328148    2.727659    -2.172145
O-O--0.6290    2.697134    2.905425    -0.447397
H-H1-0.1459    -0.403259    1.006147    0.000000
H-H1-0.1459    -0.364960    -0.516002    0.875939
H-H1-0.1459    -0.345658    -0.522086    -0.883346
H-H-0.3572    1.904244    0.070913    -0.879357
H-HC-0.0997    3.932135    1.221760    2.980082
H-HC-0.0997    5.280920    1.595925    1.907500
H-HC-0.0997    3.792711    2.540594    1.848395
H-HC-0.0347    5.374584    -0.643250    0.891407
H-HC-0.0347    3.984642    -1.403324    0.174983
H-HC-0.0243    4.961565    -2.324757    2.354635
H-HC-0.0243    4.250121    -0.975721    3.182259
H-HC-0.0171    2.010947    -1.918912    2.003878
H-HC-0.0171    2.597720    -2.448231    3.543446
H-HA-0.1313    2.766416    -3.939142    0.885512
H-HA-0.1359    3.157918    -5.878910    2.077726
H-HC-0.0092    3.673975    -4.134970    4.538130
H-HC-0.0092    4.204045    -5.768643    4.279551
H-HC-0.0318    2.410582    -5.585619    5.961824
H-HC-0.0318    1.335314    -4.888287    4.797494
H-HC-0.0435    2.554580    -7.662383    4.460857
H-HC-0.0435    1.341864    -6.934679    3.444599
H-HC-0.1066    1.163331    -9.670031    4.679665
H-HC-0.1066    0.059224    -8.903335    3.561970
H-HC-0.1066    -0.534632    -9.551481    5.095928
H-H-0.3529    1.811076    -7.309774    6.942986
H-HC-0.1047    0.361056    -8.962579    9.684685
H-HC-0.1047    0.628993    -7.251045    9.376543
H-HC-0.1047    1.923094    -8.403669    9.065167
H-H-0.3615    -1.649244    -7.702539    3.950340
H-H1-0.1469    -3.352126    -6.180856    3.632866
H-H1-0.1469    -2.489851    -4.988856    4.600208
H-H1-0.1469    -3.381677    -6.275380    5.396780
H-H-0.3570    4.828120    0.684785    -0.816437
H-HC-0.1060    3.710173    3.434604    -2.706288
H-HC-0.1060    4.588171    1.902533    -2.825678
H-HC-0.1060    5.244771    3.226201    -1.873716

D * 8 9 * F
