--Link1-- 
%chk=CHI3_-140
%NoSave 
#SP HF/6-31G*  Geom=(ModRedundant)  

paramfit run
  
0    1 
C-CT--0.3208    0.000000    0.000000    0.000000
N-N--0.5622    1.448187    0.000000    0.000000
C-C-0.8053    2.123200    0.475920    1.072365
O-O--0.6151    1.590179    0.696732    2.124447
C-CX-0.0839    3.650505    0.594143    0.921539
C-CU--0.3230    4.198902    1.549248    1.986845
C-CU--0.0657    4.307751    -0.809116    1.023981
C-CU--0.0109    4.133566    -1.622781    2.319066
C-CU-0.0816    2.832729    -2.433298    2.484965
C-CM--0.2354    2.260155    -2.397566    3.882520
C-CM--0.2653    1.283417    -1.627656    4.334158
C-CU-0.1214    0.499407    -0.592480    3.563773
C-CU--0.0354    -0.906612    -1.050998    3.136643
C-CU--0.0984    -1.805255    -1.397024    4.331474
C-CU-0.1300    -3.300113    -1.702152    4.054087
C-CU--0.3561    -3.954739    -2.075202    5.394143
N-N--0.7186    -3.928734    -0.499329    3.525332
C-C-0.8537    -5.209907    -0.512165    3.054706
C-CT--0.3868    -5.588735    0.678808    2.204485
O-O--0.6323    -5.982700    -1.398027    3.293832
C-C-0.7903    -3.384714    -2.806474    2.976107
O-O--0.6136    -3.307417    -2.523089    1.810926
N-N--0.5650    -3.443098    -4.087234    3.400639
C-CT--0.3231    -3.575176    -5.167489    2.444707
N-N--0.7191    3.997412    1.070275    -0.425452
C-C-0.8539    3.587019    2.267163    -0.934086
C-CT--0.3903    4.328148    2.727659    -2.172145
O-O--0.6290    2.697134    2.905425    -0.447397
H-H1-0.1459    -0.403259    1.006147    0.000000
H-H1-0.1459    -0.364960    -0.516002    0.875939
H-H1-0.1459    -0.345658    -0.522086    -0.883346
H-H-0.3572    1.904244    0.070913    -0.879357
H-HC-0.0997    3.932135    1.221760    2.980082
H-HC-0.0997    5.280920    1.595925    1.907500
H-HC-0.0997    3.792711    2.540594    1.848395
H-HC-0.0347    5.374584    -0.643250    0.891407
H-HC-0.0347    3.984642    -1.403324    0.174983
H-HC-0.0243    4.961565    -2.324757    2.354635
H-HC-0.0243    4.250121    -0.975721    3.182259
H-HC-0.0171    2.997743    -3.463269    2.196358
H-HC-0.0171    2.115056    -2.035313    1.776172
H-HA-0.1313    2.707252    -3.088160    4.579153
H-HA-0.1359    1.001740    -1.744710    5.368913
H-HC-0.0092    1.042898    -0.293440    2.675709
H-HC-0.0092    0.408967    0.301724    4.179250
H-HC-0.0318    -1.346166    -0.256669    2.539812
H-HC-0.0318    -0.819366    -1.904935    2.477849
H-HC-0.0435    -1.784207    -0.578684    5.048001
H-HC-0.0435    -1.391919    -2.262232    4.836367
H-HC-0.1066    -3.935654    -1.207371    6.043054
H-HC-0.1066    -3.404953    -2.866310    5.893406
H-HC-0.1066    -4.983404    -2.376796    5.265190
H-H-0.3529    -3.317978    0.125357    3.050510
H-HC-0.1047    -6.663473    0.778322    2.194628
H-HC-0.1047    -5.245972    0.502182    1.189378
H-HC-0.1047    -5.137279    1.597157    2.563936
H-H-0.3615    -3.743328    -4.263909    4.330132
H-H1-0.1469    -3.481782    -6.108174    2.971310
H-H1-0.1469    -2.790905    -5.098225    1.705284
H-H1-0.1469    -4.531991    -5.138076    1.933439
H-H-0.3570    4.828120    0.684785    -0.816437
H-HC-0.1060    3.710173    3.434604    -2.706288
H-HC-0.1060    4.588171    1.902533    -2.825678
H-HC-0.1060    5.244771    3.226201    -1.873716

D * 8 9 * F
