--Link1-- 
%chk=CHI3_170
%NoSave 
#SP HF/6-31G*  Geom=(ModRedundant)  

paramfit run
  
0    1 
C-CT--0.3208    0.000000    0.000000    0.000000
N-N--0.5622    1.448187    0.000000    0.000000
C-C-0.8053    2.123200    0.475920    1.072365
O-O--0.6151    1.590179    0.696732    2.124447
C-CX-0.0839    3.650505    0.594143    0.921539
C-CU--0.3230    4.198902    1.549248    1.986845
C-CU--0.0657    4.307751    -0.809116    1.023981
C-CU--0.0109    4.133566    -1.622781    2.319066
C-CU-0.0816    2.832729    -2.433298    2.484965
C-CM--0.2354    2.845199    -3.381947    3.660630
C-CM--0.2653    2.321665    -3.186364    4.859970
C-CU-0.1214    1.582407    -1.964825    5.350982
C-CU--0.0354    0.052402    -2.127009    5.399425
C-CU--0.0984    -0.394693    -3.248399    6.346793
C-CU-0.1300    -1.911994    -3.403413    6.626818
C-CU--0.3561    -2.092905    -4.623095    7.545022
N-N--0.7186    -2.381983    -2.206815    7.311503
C-C-0.8537    -3.708726    -2.000027    7.556552
C-CT--0.3868    -4.076518    -0.578933    7.917145
O-O--0.6323    -4.526876    -2.875078    7.492847
C-C-0.7903    -2.653118    -3.510150    5.274758
O-O--0.6136    -2.946985    -2.517425    4.664783
N-N--0.5650    -2.856829    -4.747301    4.772821
C-CT--0.3231    -3.589553    -4.921159    3.535448
N-N--0.7191    3.997412    1.070275    -0.425452
C-C-0.8539    3.587019    2.267163    -0.934086
C-CT--0.3903    4.328148    2.727659    -2.172145
O-O--0.6290    2.697134    2.905425    -0.447397
H-H1-0.1459    -0.403259    1.006147    0.000000
H-H1-0.1459    -0.364960    -0.516002    0.875939
H-H1-0.1459    -0.345658    -0.522086    -0.883346
H-H-0.3572    1.904244    0.070913    -0.879357
H-HC-0.0997    3.932135    1.221760    2.980082
H-HC-0.0997    5.280920    1.595925    1.907500
H-HC-0.0997    3.792711    2.540594    1.848395
H-HC-0.0347    5.374584    -0.643250    0.891407
H-HC-0.0347    3.984642    -1.403324    0.174983
H-HC-0.0243    4.961565    -2.324757    2.354635
H-HC-0.0243    4.250121    -0.975721    3.182259
H-HC-0.0171    2.625766    -2.992118    1.581499
H-HC-0.0171    2.022289    -1.720267    2.587959
H-HA-0.1313    3.337904    -4.324423    3.484294
H-HA-0.1359    2.423950    -3.984347    5.578665
H-HC-0.0092    1.813166    -1.109771    4.727204
H-HC-0.0092    1.944609    -1.718901    6.348442
H-HC-0.0318    -0.371589    -1.173566    5.701999
H-HC-0.0318    -0.319005    -2.314442    4.400548
H-HC-0.0435    0.086672    -3.117613    7.313601
H-HC-0.0435    -0.045344    -4.195109    5.951768
H-HC-0.1066    -1.626419    -4.410687    8.499933
H-HC-0.1066    -1.605378    -5.500730    7.133374
H-HC-0.1066    -3.136155    -4.838989    7.720407
H-H-0.3529    -1.859400    -1.380639    7.129701
H-HC-0.1047    -5.020368    -0.580287    8.440791
H-HC-0.1047    -4.187473    -0.007176    7.000681
H-HC-0.1047    -3.317160    -0.103237    8.528267
H-H-0.3615    -2.824532    -5.520738    5.394159
H-H1-0.1469    -3.537376    -5.962635    3.246440
H-H1-0.1469    -3.143095    -4.317267    2.759165
H-H1-0.1469    -4.630178    -4.631287    3.639504
H-H-0.3570    4.828120    0.684785    -0.816437
H-HC-0.1060    3.710173    3.434604    -2.706288
H-HC-0.1060    4.588171    1.902533    -2.825678
H-HC-0.1060    5.244771    3.226201    -1.873716

D * 8 9 * F
