--Link1-- 
%chk=CHI3_-20
%NoSave 
#SP HF/6-31G*  Geom=(ModRedundant)  

paramfit run
  
0    1 
C-CT--0.3208    0.000000    0.000000    0.000000
N-N--0.5622    1.448187    0.000000    0.000000
C-C-0.8053    2.123200    0.475920    1.072365
O-O--0.6151    1.590179    0.696732    2.124447
C-CX-0.0839    3.650505    0.594143    0.921539
C-CU--0.3230    4.198902    1.549248    1.986845
C-CU--0.0657    4.307751    -0.809116    1.023981
C-CU--0.0109    4.133566    -1.622781    2.319066
C-CU-0.0816    2.832729    -2.433298    2.484965
C-CM--0.2354    1.701269    -1.968063    1.598606
C-CM--0.2653    1.319905    -2.483084    0.440991
C-CU-0.1214    1.922662    -3.663832    -0.281692
C-CU--0.0354    1.114302    -4.967228    -0.150243
C-CU--0.0984    -0.300913    -4.847706    -0.731442
C-CU-0.1300    -1.160532    -6.134879    -0.825719
C-CU--0.3561    -2.538513    -5.734129    -1.377100
N-N--0.7186    -0.516506    -7.055989    -1.752172
C-C-0.8537    -0.973182    -8.330817    -1.923398
C-CT--0.3868    -0.003898    -9.269044    -2.605326
O-O--0.6323    -2.060517    -8.687010    -1.562883
C-C-0.7903    -1.202890    -6.801031    0.568259
O-O--0.6136    -0.307589    -7.519162    0.924141
N-N--0.5650    -2.220089    -6.461775    1.389350
C-CT--0.3231    -2.347836    -7.087170    2.689644
N-N--0.7191    3.997412    1.070275    -0.425452
C-C-0.8539    3.587019    2.267163    -0.934086
C-CT--0.3903    4.328148    2.727659    -2.172145
O-O--0.6290    2.697134    2.905425    -0.447397
H-H1-0.1459    -0.403259    1.006147    0.000000
H-H1-0.1459    -0.364960    -0.516002    0.875939
H-H1-0.1459    -0.345658    -0.522086    -0.883346
H-H-0.3572    1.904244    0.070913    -0.879357
H-HC-0.0997    3.932135    1.221760    2.980082
H-HC-0.0997    5.280920    1.595925    1.907500
H-HC-0.0997    3.792711    2.540594    1.848395
H-HC-0.0347    5.374584    -0.643250    0.891407
H-HC-0.0347    3.984642    -1.403324    0.174983
H-HC-0.0243    4.961565    -2.324757    2.354635
H-HC-0.0243    4.250121    -0.975721    3.182259
H-HC-0.0171    2.507772    -2.406583    3.516979
H-HC-0.0171    3.072099    -3.469536    2.273429
H-HA-0.1313    1.147956    -1.119967    1.968326
H-HA-0.1359    0.480848    -2.018445    -0.052826
H-HC-0.0092    2.927803    -3.850637    0.076443
H-HC-0.0092    2.018935    -3.411258    -1.336933
H-HC-0.0318    1.672227    -5.753997    -0.650331
H-HC-0.0318    1.064882    -5.253639    0.892041
H-HC-0.0435    -0.244501    -4.438810    -1.737998
H-HC-0.0435    -0.859908    -4.134157    -0.137537
H-HC-0.1066    -2.414899    -5.374619    -2.392015
H-HC-0.1066    -2.974269    -4.927026    -0.797373
H-HC-0.1066    -3.219111    -6.572057    -1.397132
H-H-0.3529    0.468752    -6.952660    -1.837618
H-HC-0.1047    -0.551579    -10.099248    -3.024692
H-HC-0.1047    0.690175    -9.649574    -1.861966
H-HC-0.1047    0.565436    -8.772791    -3.383769
H-H-0.3615    -3.041539    -6.074109    0.989043
H-H1-0.1469    -3.144592    -6.595877    3.232535
H-H1-0.1469    -1.425344    -6.975687    3.240286
H-H1-0.1469    -2.572056    -8.145784    2.607080
H-H-0.3570    4.828120    0.684785    -0.816437
H-HC-0.1060    3.710173    3.434604    -2.706288
H-HC-0.1060    4.588171    1.902533    -2.825678
H-HC-0.1060    5.244771    3.226201    -1.873716

D * 8 9 * F
