--Link1-- 
%chk=CHI3_-180
%NoSave 
#SP HF/6-31G*  Geom=(ModRedundant)  

paramfit run
  
0    1 
C-CT--0.3208    0.000000    0.000000    0.000000
N-N--0.5622    1.448187    0.000000    0.000000
C-C-0.8053    2.123200    0.475920    1.072365
O-O--0.6151    1.590179    0.696732    2.124447
C-CX-0.0839    3.650505    0.594143    0.921539
C-CU--0.3230    4.198902    1.549248    1.986845
C-CU--0.0657    4.307751    -0.809116    1.023981
C-CU--0.0109    4.133566    -1.622781    2.319066
C-CU-0.0816    2.832729    -2.433298    2.484965
C-CM--0.2354    2.747524    -3.199950    3.783912
C-CM--0.2653    2.112797    -2.845129    4.889344
C-CU-0.1214    1.316675    -1.584292    5.126479
C-CU--0.0354    -0.209188    -1.776539    5.060527
C-CU--0.0984    -0.728725    -2.758973    6.118742
C-CU-0.1300    -2.263487    -2.910073    6.280980
C-CU--0.3561    -2.514129    -3.987198    7.348890
N-N--0.7186    -2.809168    -1.638845    6.736767
C-C-0.8537    -4.155287    -1.432369    6.828366
C-CT--0.3868    -4.571864    0.016277    6.941030
O-O--0.6323    -4.953499    -2.327883    6.821021
C-C-0.7903    -2.874793    -3.231425    4.898315
O-O--0.6136    -3.122706    -2.345936    4.124767
N-N--0.5650    -3.016316    -4.533270    4.567933
C-CT--0.3231    -3.629085    -4.904087    3.308881
N-N--0.7191    3.997412    1.070275    -0.425452
C-C-0.8539    3.587019    2.267163    -0.934086
C-CT--0.3903    4.328148    2.727659    -2.172145
O-O--0.6290    2.697134    2.905425    -0.447397
H-H1-0.1459    -0.403259    1.006147    0.000000
H-H1-0.1459    -0.364960    -0.516002    0.875939
H-H1-0.1459    -0.345658    -0.522086    -0.883346
H-H-0.3572    1.904244    0.070913    -0.879357
H-HC-0.0997    3.932135    1.221760    2.980082
H-HC-0.0997    5.280920    1.595925    1.907500
H-HC-0.0997    3.792711    2.540594    1.848395
H-HC-0.0347    5.374584    -0.643250    0.891407
H-HC-0.0347    3.984642    -1.403324    0.174983
H-HC-0.0243    4.961565    -2.324757    2.354635
H-HC-0.0243    4.250121    -0.975721    3.182259
H-HC-0.0171    2.717076    -3.122839    1.658817
H-HC-0.0171    2.007771    -1.733709    2.408454
H-HA-0.1313    3.265675    -4.145224    3.793430
H-HA-0.1359    2.157564    -3.527053    5.724052
H-HC-0.0092    1.594018    -0.823632    4.406797
H-HC-0.0092    1.581916    -1.186569    6.105283
H-HC-0.0318    -0.670755    -0.800283    5.179913
H-HC-0.0318    -0.484161    -2.116854    4.070878
H-HC-0.0435    -0.340627    -2.476557    7.095039
H-HC-0.0435    -0.332986    -3.743934    5.900589
H-HC-0.1066    -2.140716    -3.626169    8.300101
H-HC-0.1066    -1.980101    -4.902752    7.116607
H-HC-0.1066    -3.566489    -4.201697    7.459656
H-H-0.3529    -2.281894    -0.834945    6.482920
H-HC-0.1047    -5.560097    0.067216    7.372147
H-HC-0.1047    -4.604232    0.445433    5.944084
H-HC-0.1047    -3.878147    0.595070    7.541145
H-H-0.3615    -3.032502    -5.206878    5.296837
H-H1-0.1469    -3.537910    -5.974886    3.182399
H-H1-0.1469    -3.119853    -4.408558    2.495395
H-H1-0.1469    -4.678263    -4.628704    3.275085
H-H-0.3570    4.828120    0.684785    -0.816437
H-HC-0.1060    3.710173    3.434604    -2.706288
H-HC-0.1060    4.588171    1.902533    -2.825678
H-HC-0.1060    5.244771    3.226201    -1.873716

D * 8 9 * F
