--Link1-- 
%chk=CHI3_20
%NoSave 
#SP HF/6-31G*  Geom=(ModRedundant)  

paramfit run
  
0    1 
C-CT--0.3208    0.000000    0.000000    0.000000
N-N--0.5622    1.448187    0.000000    0.000000
C-C-0.8053    2.123200    0.475920    1.072365
O-O--0.6151    1.590179    0.696732    2.124447
C-CX-0.0839    3.650505    0.594143    0.921539
C-CU--0.3230    4.198902    1.549248    1.986845
C-CU--0.0657    4.307751    -0.809116    1.023981
C-CU--0.0109    4.133566    -1.622781    2.319066
C-CU-0.0816    2.832729    -2.433298    2.484965
C-CM--0.2354    2.111983    -2.711538    1.186741
C-CM--0.2653    2.154290    -3.817886    0.462199
C-CU-0.1214    2.935141    -5.076902    0.753580
C-CU--0.0354    2.088910    -6.229910    1.322819
C-CU--0.0984    0.981948    -6.682942    0.361409
C-CU-0.1300    0.169553    -7.950781    0.731873
C-CU--0.3561    -0.903657    -8.147975    -0.351080
N-N--0.7186    1.071073    -9.094801    0.735413
C-C-0.8537    0.662538    -10.323409    1.167477
C-CT--0.3868    1.778976    -11.295999    1.471517
O-O--0.6323    -0.493359    -10.616604    1.298170
C-C-0.7903    -0.393715    -7.773866    2.160213
O-O--0.6136    0.288572    -8.027259    3.116353
N-N--0.5650    -1.625562    -7.233498    2.280781
C-CT--0.3231    -2.233405    -7.087067    3.587413
N-N--0.7191    3.997412    1.070275    -0.425452
C-C-0.8539    3.587019    2.267163    -0.934086
C-CT--0.3903    4.328148    2.727659    -2.172145
O-O--0.6290    2.697134    2.905425    -0.447397
H-H1-0.1459    -0.403259    1.006147    0.000000
H-H1-0.1459    -0.364960    -0.516002    0.875939
H-H1-0.1459    -0.345658    -0.522086    -0.883346
H-H-0.3572    1.904244    0.070913    -0.879357
H-HC-0.0997    3.932135    1.221760    2.980082
H-HC-0.0997    5.280920    1.595925    1.907500
H-HC-0.0997    3.792711    2.540594    1.848395
H-HC-0.0347    5.374584    -0.643250    0.891407
H-HC-0.0347    3.984642    -1.403324    0.174983
H-HC-0.0243    4.961565    -2.324757    2.354635
H-HC-0.0243    4.250121    -0.975721    3.182259
H-HC-0.0171    2.159901    -1.921220    3.160571
H-HC-0.0171    3.096080    -3.364646    2.973913
H-HA-0.1313    1.492510    -1.907078    0.824507
H-HA-0.1359    1.565227    -3.838333    -0.441320
H-HC-0.0092    3.737451    -4.868726    1.451022
H-HC-0.0092    3.412703    -5.408816    -0.167486
H-HC-0.0318    2.761634    -7.051611    1.552219
H-HC-0.0318    1.658525    -5.924859    2.267564
H-HC-0.0435    1.410261    -6.866128    -0.621712
H-HC-0.0435    0.271994    -5.872608    0.244475
H-HC-0.1066    -0.411378    -8.364988    -1.291903
H-HC-0.1066    -1.490345    -7.246111    -0.491863
H-HC-0.1066    -1.560210    -8.972371    -0.116455
H-H-0.3529    2.024215    -8.883765    0.924348
H-HC-0.1047    1.390090    -12.302296    1.436957
H-HC-0.1047    2.146102    -11.098713    2.474225
H-HC-0.1047    2.606738    -11.197195    0.777667
H-H-0.3615    -2.234457    -7.265361    1.497492
H-H1-0.1469    -3.154472    -6.529481    3.479454
H-H1-0.1469    -1.566995    -6.543528    4.240934
H-H1-0.1469    -2.449508    -8.048941    4.041121
H-H-0.3570    4.828120    0.684785    -0.816437
H-HC-0.1060    3.710173    3.434604    -2.706288
H-HC-0.1060    4.588171    1.902533    -2.825678
H-HC-0.1060    5.244771    3.226201    -1.873716

D * 8 9 * F
