--Link1-- 
%chk=CHI3_-150
%NoSave 
#SP HF/6-31G*  Geom=(ModRedundant)  

paramfit run
  
0    1 
C-CT--0.3208    0.000000    0.000000    0.000000
N-N--0.5622    1.448187    0.000000    0.000000
C-C-0.8053    2.123200    0.475920    1.072365
O-O--0.6151    1.590179    0.696732    2.124447
C-CX-0.0839    3.650505    0.594143    0.921539
C-CU--0.3230    4.198902    1.549248    1.986845
C-CU--0.0657    4.307751    -0.809116    1.023981
C-CU--0.0109    4.133566    -1.622781    2.319066
C-CU-0.0816    2.832729    -2.433298    2.484965
C-CM--0.2354    2.389232    -2.597096    3.919802
C-CM--0.2653    1.476953    -1.890545    4.567328
C-CU-0.1214    0.653424    -0.743840    4.031958
C-CU--0.0354    -0.796507    -1.117567    3.674756
C-CU--0.0984    -1.592582    -1.625152    4.884523
C-CU-0.1300    -3.113599    -1.868185    4.705390
C-CU--0.3561    -3.654354    -2.426816    6.031651
N-N--0.7186    -3.756431    -0.593144    4.418043
C-C-0.8537    -5.074641    -0.521170    4.071348
C-CT--0.3868    -5.497979    0.786547    3.442486
O-O--0.6323    -5.845076    -1.423305    4.249462
C-C-0.7903    -3.322837    -2.800479    3.490577
O-O--0.6136    -3.343442    -2.349403    2.377008
N-N--0.5650    -3.375359    -4.129031    3.727582
C-CT--0.3231    -3.620280    -5.054944    2.640889
N-N--0.7191    3.997412    1.070275    -0.425452
C-C-0.8539    3.587019    2.267163    -0.934086
C-CT--0.3903    4.328148    2.727659    -2.172145
O-O--0.6290    2.697134    2.905425    -0.447397
H-H1-0.1459    -0.403259    1.006147    0.000000
H-H1-0.1459    -0.364960    -0.516002    0.875939
H-H1-0.1459    -0.345658    -0.522086    -0.883346
H-H-0.3572    1.904244    0.070913    -0.879357
H-HC-0.0997    3.932135    1.221760    2.980082
H-HC-0.0997    5.280920    1.595925    1.907500
H-HC-0.0997    3.792711    2.540594    1.848395
H-HC-0.0347    5.374584    -0.643250    0.891407
H-HC-0.0347    3.984642    -1.403324    0.174983
H-HC-0.0243    4.961565    -2.324757    2.354635
H-HC-0.0243    4.250121    -0.975721    3.182259
H-HC-0.0171    2.944882    -3.411382    2.035368
H-HC-0.0171    2.064583    -1.926649    1.911299
H-HA-0.1313    2.879452    -3.388113    4.463944
H-HA-0.1359    1.286574    -2.155454    5.595598
H-HC-0.0092    1.122290    -0.323693    3.150421
H-HC-0.0092    0.641458    0.050904    4.776830
H-HC-0.0318    -1.267606    -0.238755    3.243329
H-HC-0.0318    -0.790592    -1.866063    2.893380
H-HC-0.0435    -1.486391    -0.921665    5.707543
H-HC-0.0435    -1.157656    -2.560201    5.217497
H-HC-0.1066    -3.554939    -1.664393    6.795463
H-HC-0.1066    -3.082196    -3.289380    6.357228
H-HC-0.1066    -4.697781    -2.693800    5.956035
H-H-0.3529    -3.175157    0.087359    3.984744
H-HC-0.1047    -6.566370    0.899260    3.546875
H-HC-0.1047    -5.252480    0.757378    2.385128
H-HC-0.1047    -4.992826    1.636429    3.888472
H-H-0.3615    -3.595191    -4.437170    4.645206
H-H1-0.1469    -3.503863    -6.064017    3.013904
H-H1-0.1469    -2.904165    -4.886831    1.849976
H-H1-0.1469    -4.618132    -4.939070    2.230257
H-H-0.3570    4.828120    0.684785    -0.816437
H-HC-0.1060    3.710173    3.434604    -2.706288
H-HC-0.1060    4.588171    1.902533    -2.825678
H-HC-0.1060    5.244771    3.226201    -1.873716

D * 8 9 * F
