--Link1-- 
%chk=CHI3_30
%NoSave 
#SP HF/6-31G*  Geom=(ModRedundant)  

paramfit run
  
0    1 
C-CT--0.3208    0.000000    0.000000    0.000000
N-N--0.5622    1.448187    0.000000    0.000000
C-C-0.8053    2.123200    0.475920    1.072365
O-O--0.6151    1.590179    0.696732    2.124447
C-CX-0.0839    3.650505    0.594143    0.921539
C-CU--0.3230    4.198902    1.549248    1.986845
C-CU--0.0657    4.307751    -0.809116    1.023981
C-CU--0.0109    4.133566    -1.622781    2.319066
C-CU-0.0816    2.832729    -2.433298    2.484965
C-CM--0.2354    2.238774    -2.915911    1.182437
C-CM--0.2653    2.361260    -4.114563    0.635638
C-CU-0.1214    3.126732    -5.297441    1.178414
C-CU--0.0354    2.245225    -6.376371    1.832951
C-CU--0.0984    1.237618    -6.992614    0.853213
C-CU-0.1300    0.409591    -8.213209    1.331926
C-CU--0.3561    -0.556205    -8.593271    0.197800
N-N--0.7186    1.320506    -9.321214    1.585086
C-C-0.8537    0.888395    -10.483767    2.155006
C-CT--0.3868    1.983390    -11.372990    2.698211
O-O--0.6323    -0.271054    -10.784092    2.223015
C-C-0.7903    -0.285698    -7.844500    2.662096
O-O--0.6136    0.308020    -7.938483    3.702574
N-N--0.5650    -1.529785    -7.323831    2.590449
C-CT--0.3231    -2.257810    -7.004134    3.801224
N-N--0.7191    3.997412    1.070275    -0.425452
C-C-0.8539    3.587019    2.267163    -0.934086
C-CT--0.3903    4.328148    2.727659    -2.172145
O-O--0.6290    2.697134    2.905425    -0.447397
H-H1-0.1459    -0.403259    1.006147    0.000000
H-H1-0.1459    -0.364960    -0.516002    0.875939
H-H1-0.1459    -0.345658    -0.522086    -0.883346
H-H-0.3572    1.904244    0.070913    -0.879357
H-HC-0.0997    3.932135    1.221760    2.980082
H-HC-0.0997    5.280920    1.595925    1.907500
H-HC-0.0997    3.792711    2.540594    1.848395
H-HC-0.0347    5.374584    -0.643250    0.891407
H-HC-0.0347    3.984642    -1.403324    0.174983
H-HC-0.0243    4.961565    -2.324757    2.354635
H-HC-0.0243    4.250121    -0.975721    3.182259
H-HC-0.0171    2.094115    -1.845545    3.014455
H-HC-0.0171    3.060741    -3.276489    3.127517
H-HA-0.1313    1.645971    -2.188812    0.651377
H-HA-0.1359    1.858753    -4.281374    -0.304267
H-HC-0.0092    3.858410    -4.969559    1.906842
H-HC-0.0092    3.691531    -5.747730    0.363039
H-HC-0.0318    2.903562    -7.138519    2.240501
H-HC-0.0318    1.725524    -5.948000    2.679851
H-HC-0.0435    1.757356    -7.306103    -0.049633
H-HC-0.0435    0.531926    -6.226272    0.554769
H-HC-0.1066    0.023704    -8.932427    -0.652647
H-HC-0.1066    -1.138053    -7.736746    -0.126543
H-HC-0.1066    -1.221779    -9.391122    0.491370
H-H-0.3529    2.249447    -9.060741    1.825783
H-HC-0.1047    1.611431    -12.383147    2.777515
H-HC-0.1047    2.253627    -11.022478    3.689795
H-HC-0.1047    2.870654    -11.355295    2.074647
H-H-0.3615    -2.063043    -7.484924    1.768869
H-H1-0.1469    -3.171503    -6.491823    3.529887
H-H1-0.1469    -1.661376    -6.354430    4.424743
H-H1-0.1469    -2.503524    -7.894840    4.370453
H-H-0.3570    4.828120    0.684785    -0.816437
H-HC-0.1060    3.710173    3.434604    -2.706288
H-HC-0.1060    4.588171    1.902533    -2.825678
H-HC-0.1060    5.244771    3.226201    -1.873716

D * 8 9 * F
