--Link1-- 
%chk=CHI3_0
%NoSave 
#SP HF/6-31G*  Geom=(ModRedundant)  

paramfit run
  
0    1 
C-CT--0.3208    0.000000    0.000000    0.000000
N-N--0.5622    1.448187    0.000000    0.000000
C-C-0.8053    2.123200    0.475920    1.072365
O-O--0.6151    1.590179    0.696732    2.124447
C-CX-0.0839    3.650505    0.594143    0.921539
C-CU--0.3230    4.198902    1.549248    1.986845
C-CU--0.0657    4.307751    -0.809116    1.023981
C-CU--0.0109    4.133566    -1.622781    2.319066
C-CU-0.0816    2.832729    -2.433298    2.484965
C-CM--0.2354    1.880481    -2.313057    1.318327
C-CM--0.2653    1.725416    -3.159979    0.313620
C-CU-0.1214    2.463482    -4.456990    0.083891
C-CU--0.0354    1.657906    -5.717400    0.447179
C-CU--0.0984    0.373762    -5.858795    -0.381008
C-CU-0.1300    -0.440520    -7.171323    -0.243665
C-CU--0.3561    -1.696428    -7.032891    -1.119441
N-N--0.7186    0.373245    -8.275515    -0.733640
C-C-0.8537    -0.030958    -9.572570    -0.602014
C-CT--0.3868    1.057278    -10.602724    -0.800335
O-O--0.6323    -1.162629    -9.879517    -0.348545
C-C-0.7903    -0.733742    -7.413555    1.254357
O-O--0.6136    0.087285    -7.941951    1.954815
N-N--0.5650    -1.888828    -6.919593    1.750098
C-CT--0.3231    -2.249006    -7.154992    3.133232
N-N--0.7191    3.997412    1.070275    -0.425452
C-C-0.8539    3.587019    2.267163    -0.934086
C-CT--0.3903    4.328148    2.727659    -2.172145
O-O--0.6290    2.697134    2.905425    -0.447397
H-H1-0.1459    -0.403259    1.006147    0.000000
H-H1-0.1459    -0.364960    -0.516002    0.875939
H-H1-0.1459    -0.345658    -0.522086    -0.883346
H-H-0.3572    1.904244    0.070913    -0.879357
H-HC-0.0997    3.932135    1.221760    2.980082
H-HC-0.0997    5.280920    1.595925    1.907500
H-HC-0.0997    3.792711    2.540594    1.848395
H-HC-0.0347    5.374584    -0.643250    0.891407
H-HC-0.0347    3.984642    -1.403324    0.174983
H-HC-0.0243    4.961565    -2.324757    2.354635
H-HC-0.0243    4.250121    -0.975721    3.182259
H-HC-0.0171    2.321921    -2.134087    3.391007
H-HC-0.0171    3.117553    -3.469429    2.630363
H-HA-0.1313    1.259747    -1.431700    1.321890
H-HA-0.1359    0.987763    -2.909776    -0.432723
H-HC-0.0092    3.386683    -4.469622    0.650465
H-HC-0.0092    2.751073    -4.510259    -0.965417
H-HC-0.0318    2.306712    -6.576993    0.303915
H-HC-0.0318    1.419094    -5.697210    1.502352
H-HC-0.0435    0.611593    -5.751212    -1.437131
H-HC-0.0435    -0.292743    -5.042540    -0.128325
H-HC-0.1066    -1.390517    -6.970652    -2.157288
H-HC-0.1066    -2.240148    -6.123375    -0.885924
H-HC-0.1066    -2.353071    -7.883226    -1.012253
H-H-0.3529    1.356185    -8.138440    -0.672394
H-HC-0.1047    0.605161    -11.551108    -1.047759
H-HC-0.1047    1.605381    -10.710538    0.130839
H-HC-0.1047    1.755977    -10.313940    -1.578028
H-H-0.3615    -2.625732    -6.715217    1.117237
H-H1-0.1469    -3.137457    -6.580954    3.361392
H-H1-0.1469    -1.445687    -6.832704    3.779325
H-H1-0.1469    -2.443392    -8.205207    3.325625
H-H-0.3570    4.828120    0.684785    -0.816437
H-HC-0.1060    3.710173    3.434604    -2.706288
H-HC-0.1060    4.588171    1.902533    -2.825678
H-HC-0.1060    5.244771    3.226201    -1.873716

D * 8 9 * F
