--Link1-- 
%chk=CHI3_140
%NoSave 
#SP HF/6-31G*  Geom=(ModRedundant)  

paramfit run
  
0    1 
C-CT--0.3208    0.000000    0.000000    0.000000
N-N--0.5622    1.448187    0.000000    0.000000
C-C-0.8053    2.123200    0.475920    1.072365
O-O--0.6151    1.590179    0.696732    2.124447
C-CX-0.0839    3.650505    0.594143    0.921539
C-CU--0.3230    4.198902    1.549248    1.986845
C-CU--0.0657    4.307751    -0.809116    1.023981
C-CU--0.0109    4.133566    -1.622781    2.319066
C-CU-0.0816    2.832729    -2.433298    2.484965
C-CM--0.2354    3.032043    -3.794839    3.108469
C-CM--0.2653    2.851545    -4.136259    4.374016
C-CU-0.1214    2.402241    -3.248181    5.509444
C-CU--0.0354    0.925049    -3.424060    5.905090
C-CU--0.0984    0.605733    -4.846134    6.385358
C-CU-0.1300    -0.800374    -5.114927    6.981396
C-CU--0.3561    -0.882221    -6.611741    7.322426
N-N--0.7186    -0.945067    -4.331035    8.200456
C-C-0.8537    -2.135765    -4.257006    8.863641
C-CT--0.3868    -2.238034    -3.130615    9.866432
O-O--0.6323    -3.037411    -5.024473    8.670845
C-C-0.7903    -1.863966    -4.634803    5.967996
O-O--0.6136    -2.187003    -3.477996    5.930930
N-N--0.5650    -2.325755    -5.537596    5.075978
C-CT--0.3231    -3.360117    -5.167295    4.131958
N-N--0.7191    3.997412    1.070275    -0.425452
C-C-0.8539    3.587019    2.267163    -0.934086
C-CT--0.3903    4.328148    2.727659    -2.172145
O-O--0.6290    2.697134    2.905425    -0.447397
H-H1-0.1459    -0.403259    1.006147    0.000000
H-H1-0.1459    -0.364960    -0.516002    0.875939
H-H1-0.1459    -0.345658    -0.522086    -0.883346
H-H-0.3572    1.904244    0.070913    -0.879357
H-HC-0.0997    3.932135    1.221760    2.980082
H-HC-0.0997    5.280920    1.595925    1.907500
H-HC-0.0997    3.792711    2.540594    1.848395
H-HC-0.0347    5.374584    -0.643250    0.891407
H-HC-0.0347    3.984642    -1.403324    0.174983
H-HC-0.0243    4.961565    -2.324757    2.354635
H-HC-0.0243    4.250121    -0.975721    3.182259
H-HC-0.0171    2.343961    -2.551088    1.526531
H-HC-0.0171    2.160125    -1.838186    3.092649
H-HA-0.1313    3.354801    -4.567443    2.429481
H-HA-0.1359    3.039702    -5.164975    4.638784
H-HC-0.0092    2.564537    -2.206817    5.259068
H-HC-0.0092    3.028390    -3.452449    6.377088
H-HC-0.0318    0.701246    -2.695382    6.679244
H-HC-0.0318    0.296318    -3.166413    5.062982
H-HC-0.0435    1.325724    -5.140544    7.145930
H-HC-0.0435    0.735358    -5.529446    5.554315
H-HC-0.1066    -0.170273    -6.827416    8.110586
H-HC-0.1066    -0.616093    -7.224757    6.467576
H-HC-0.1066    -1.865694    -6.887903    7.672073
H-H-0.3529    -0.394669    -3.503928    8.241300
H-HC-0.1047    -3.014336    -3.362047    10.579772
H-HC-0.1047    -2.509728    -2.221304    9.338738
H-HC-0.1047    -1.300892    -2.959224    10.384864
H-H-0.3615    -2.226513    -6.502727    5.285702
H-H1-0.1469    -3.500349    -5.983391    3.435364
H-H1-0.1469    -3.057122    -4.286033    3.585884
H-H1-0.1469    -4.301677    -4.956072    4.628550
H-H-0.3570    4.828120    0.684785    -0.816437
H-HC-0.1060    3.710173    3.434604    -2.706288
H-HC-0.1060    4.588171    1.902533    -2.825678
H-HC-0.1060    5.244771    3.226201    -1.873716

D * 8 9 * F
