--Link1-- 
%chk=CHI3_-50
%NoSave 
#SP HF/6-31G*  Geom=(ModRedundant)  

paramfit run
  
0    1 
C-CT--0.3208    0.000000    0.000000    0.000000
N-N--0.5622    1.448187    0.000000    0.000000
C-C-0.8053    2.123200    0.475920    1.072365
O-O--0.6151    1.590179    0.696732    2.124447
C-CX-0.0839    3.650505    0.594143    0.921539
C-CU--0.3230    4.198902    1.549248    1.986845
C-CU--0.0657    4.307751    -0.809116    1.023981
C-CU--0.0109    4.133566    -1.622781    2.319066
C-CU-0.0816    2.832729    -2.433298    2.484965
C-CM--0.2354    1.575390    -1.638857    2.219936
C-CM--0.2653    0.860192    -1.608923    1.107123
C-CU-0.1214    1.124798    -2.361435    -0.174854
C-CU--0.0354    0.232985    -3.599482    -0.378504
C-CU--0.0984    -1.259804    -3.249899    -0.443976
C-CU-0.1300    -2.255653    -4.376639    -0.822641
C-CU--0.3561    -3.673320    -3.785688    -0.755965
N-N--0.7186    -1.973056    -4.806935    -2.185181
C-C-0.8537    -2.599403    -5.887211    -2.736317
C-CT--0.3868    -1.944731    -6.436152    -3.983263
O-O--0.6323    -3.594735    -6.369828    -2.272059
C-C-0.7903    -2.022327    -5.577140    0.122390
O-O--0.6136    -1.153670    -6.373459    -0.112638
N-N--0.5650    -2.756005    -5.629142    1.255083
C-CT--0.3231    -2.623645    -6.753082    2.159208
N-N--0.7191    3.997412    1.070275    -0.425452
C-C-0.8539    3.587019    2.267163    -0.934086
C-CT--0.3903    4.328148    2.727659    -2.172145
O-O--0.6290    2.697134    2.905425    -0.447397
H-H1-0.1459    -0.403259    1.006147    0.000000
H-H1-0.1459    -0.364960    -0.516002    0.875939
H-H1-0.1459    -0.345658    -0.522086    -0.883346
H-H-0.3572    1.904244    0.070913    -0.879357
H-HC-0.0997    3.932135    1.221760    2.980082
H-HC-0.0997    5.280920    1.595925    1.907500
H-HC-0.0997    3.792711    2.540594    1.848395
H-HC-0.0347    5.374584    -0.643250    0.891407
H-HC-0.0347    3.984642    -1.403324    0.174983
H-HC-0.0243    4.961565    -2.324757    2.354635
H-HC-0.0243    4.250121    -0.975721    3.182259
H-HC-0.0171    2.782072    -2.854233    3.480762
H-HC-0.0171    2.892483    -3.276882    1.806269
H-HA-0.1313    1.232159    -1.034880    3.044265
H-HA-0.1359    -0.017679    -0.981965    1.101984
H-HC-0.0092    2.159791    -2.678285    -0.217997
H-HC-0.0092    0.981398    -1.679598    -1.012188
H-HC-0.0318    0.554910    -4.092061    -1.291797
H-HC-0.0318    0.414349    -4.306048    0.420684
H-HC-0.0435    -1.411618    -2.448027    -1.163341
H-HC-0.0435    -1.567528    -2.863741    0.520668
H-HC-0.1066    -3.768215    -3.024446    -1.521528
H-HC-0.1066    -3.855522    -3.308262    0.201244
H-HC-0.1066    -4.427569    -4.537613    -0.933324
H-H-0.3529    -1.035534    -4.671379    -2.487487
H-HC-0.1047    -2.670433    -7.008847    -4.540432
H-HC-0.1047    -1.134162    -7.095146    -3.686902
H-HC-0.1047    -1.536331    -5.650475    -4.609604
H-H-0.3615    -3.602220    -5.111756    1.294337
H-H1-0.1469    -3.197917    -6.547062    3.052903
H-H1-0.1469    -1.586071    -6.883704    2.429399
H-H1-0.1469    -2.979793    -7.674873    1.710641
H-H-0.3570    4.828120    0.684785    -0.816437
H-HC-0.1060    3.710173    3.434604    -2.706288
H-HC-0.1060    4.588171    1.902533    -2.825678
H-HC-0.1060    5.244771    3.226201    -1.873716

D * 8 9 * F
