--Link1-- 
%chk=CHI3_60
%NoSave 
#SP HF/6-31G*  Geom=(ModRedundant)  

paramfit run
  
0    1 
C-CT--0.3208    0.000000    0.000000    0.000000
N-N--0.5622    1.448187    0.000000    0.000000
C-C-0.8053    2.123200    0.475920    1.072365
O-O--0.6151    1.590179    0.696732    2.124447
C-CX-0.0839    3.650505    0.594143    0.921539
C-CU--0.3230    4.198902    1.549248    1.986845
C-CU--0.0657    4.307751    -0.809116    1.023981
C-CU--0.0109    4.133566    -1.622781    2.319066
C-CU-0.0816    2.832729    -2.433298    2.484965
C-CM--0.2354    2.617224    -3.476052    1.413285
C-CM--0.2653    2.878629    -4.771184    1.484402
C-CU-0.1214    3.458622    -5.527824    2.655239
C-CU--0.0354    2.425029    -6.330795    3.465478
C-CU--0.0984    1.722299    -7.407328    2.627527
C-CU-0.1300    0.787684    -8.405022    3.359476
C-CU--0.3561    0.168945    -9.327502    2.296629
N-N--0.7186    1.587585    -9.197571    4.283356
C-C-0.8537    1.008852    -10.060227    5.168765
C-CT--0.3868    1.907188    -10.514185    6.296470
O-O--0.6323    -0.126257    -10.434558    5.066067
C-C-0.7903    -0.244555    -7.599674    4.180830
O-O--0.6136    0.039552    -7.186219    5.272740
N-N--0.5650    -1.418003    -7.300047    3.583148
C-CT--0.3231    -2.449152    -6.592134    4.313760
N-N--0.7191    3.997412    1.070275    -0.425452
C-C-0.8539    3.587019    2.267163    -0.934086
C-CT--0.3903    4.328148    2.727659    -2.172145
O-O--0.6290    2.697134    2.905425    -0.447397
H-H1-0.1459    -0.403259    1.006147    0.000000
H-H1-0.1459    -0.364960    -0.516002    0.875939
H-H1-0.1459    -0.345658    -0.522086    -0.883346
H-H-0.3572    1.904244    0.070913    -0.879357
H-HC-0.0997    3.932135    1.221760    2.980082
H-HC-0.0997    5.280920    1.595925    1.907500
H-HC-0.0997    3.792711    2.540594    1.848395
H-HC-0.0347    5.374584    -0.643250    0.891407
H-HC-0.0347    3.984642    -1.403324    0.174983
H-HC-0.0243    4.961565    -2.324757    2.354635
H-HC-0.0243    4.250121    -0.975721    3.182259
H-HC-0.0171    1.980291    -1.766785    2.506731
H-HC-0.0171    2.870469    -2.902705    3.461728
H-HA-0.1313    2.197450    -3.106599    0.491651
H-HA-0.1359    2.653085    -5.368153    0.614621
H-HC-0.0092    3.963566    -4.847068    3.329826
H-HC-0.0092    4.223356    -6.208330    2.282830
H-HC-0.0318    2.941581    -6.775651    4.311439
H-HC-0.0318    1.694859    -5.651914    3.885956
H-HC-0.0435    2.468539    -8.005640    2.109181
H-HC-0.0435    1.130234    -6.918843    1.862549
H-HC-0.1066    0.958478    -9.920468    1.849852
H-HC-0.1066    -0.296424    -8.754282    1.501500
H-HC-0.1066    -0.556184    -10.001746    2.727120
H-H-0.3529    2.415948    -8.757429    4.613206
H-HC-0.1047    1.522082    -11.435680    6.705863
H-HC-0.1047    1.896244    -9.756216    7.073958
H-HC-0.1047    2.931823    -10.656087    5.970327
H-H-0.3615    -1.705624    -7.846309    2.805857
H-H1-0.1469    -3.250078    -6.345377    3.629253
H-H1-0.1469    -2.043566    -5.679535    4.725207
H-H1-0.1469    -2.846960    -7.188474    5.128549
H-H-0.3570    4.828120    0.684785    -0.816437
H-HC-0.1060    3.710173    3.434604    -2.706288
H-HC-0.1060    4.588171    1.902533    -2.825678
H-HC-0.1060    5.244771    3.226201    -1.873716

D * 8 9 * F
