--Link1-- 
%chk=CHI3_10
%NoSave 
#SP HF/6-31G*  Geom=(ModRedundant)  

paramfit run
  
0    1 
C-CT--0.3208    0.000000    0.000000    0.000000
N-N--0.5622    1.448187    0.000000    0.000000
C-C-0.8053    2.123200    0.475920    1.072365
O-O--0.6151    1.590179    0.696732    2.124447
C-CX-0.0839    3.650505    0.594143    0.921539
C-CU--0.3230    4.198902    1.549248    1.986845
C-CU--0.0657    4.307751    -0.809116    1.023981
C-CU--0.0109    4.133566    -1.622781    2.319066
C-CU-0.0816    2.832729    -2.433298    2.484965
C-CM--0.2354    1.991330    -2.508530    1.232501
C-CM--0.2653    1.940173    -3.496435    0.353762
C-CU-0.1214    2.711795    -4.793886    0.385006
C-CU--0.0354    1.891134    -6.008005    0.856169
C-CU--0.0984    0.691050    -6.301136    -0.054208
C-CU-0.1300    -0.116717    -7.599933    0.201302
C-CU--0.3561    -1.287621    -7.622527    -0.794653
N-N--0.7186    0.752088    -8.742668    -0.045404
C-C-0.8537    0.352951    -10.016569    0.239067
C-CT--0.3868    1.467113    -11.036616    0.293403
O-O--0.6323    -0.793592    -10.311994    0.432213
C-C-0.7903    -0.544591    -7.628748    1.686165
O-O--0.6136    0.214241    -8.028427    2.527806
N-N--0.5650    -1.746468    -7.097373    1.997798
C-CT--0.3231    -2.230440    -7.137867    3.362471
N-N--0.7191    3.997412    1.070275    -0.425452
C-C-0.8539    3.587019    2.267163    -0.934086
C-CT--0.3903    4.328148    2.727659    -2.172145
O-O--0.6290    2.697134    2.905425    -0.447397
H-H1-0.1459    -0.403259    1.006147    0.000000
H-H1-0.1459    -0.364960    -0.516002    0.875939
H-H1-0.1459    -0.345658    -0.522086    -0.883346
H-H-0.3572    1.904244    0.070913    -0.879357
H-HC-0.0997    3.932135    1.221760    2.980082
H-HC-0.0997    5.280920    1.595925    1.907500
H-HC-0.0997    3.792711    2.540594    1.848395
H-HC-0.0347    5.374584    -0.643250    0.891407
H-HC-0.0347    3.984642    -1.403324    0.174983
H-HC-0.0243    4.961565    -2.324757    2.354635
H-HC-0.0243    4.250121    -0.975721    3.182259
H-HC-0.0171    2.236614    -2.018385    3.287373
H-HC-0.0171    3.115211    -3.429618    2.806499
H-HA-0.1313    1.362452    -1.652126    1.050298
H-HA-0.1359    1.271926    -3.376455    -0.484577
H-HC-0.0092    3.578600    -4.700375    1.027945
H-HC-0.0092    3.096010    -4.992105    -0.614835
H-HC-0.0318    2.560648    -6.862521    0.900085
H-HC-0.0318    1.555337    -5.840407    1.871049
H-HC-0.0435    1.024432    -6.342528    -1.088943
H-HC-0.0435    -0.005708    -5.473993    0.014448
H-HC-0.1066    -0.887609    -7.704372    -1.798581
H-HC-0.1066    -1.861469    -6.702818    -0.747580
H-HC-0.1066    -1.941165    -8.464596    -0.622791
H-H-0.3529    1.723414    -8.573186    0.083102
H-HC-0.1047    1.051234    -12.022112    0.148819
H-HC-0.1047    1.927809    -10.993669    1.275768
H-HC-0.1047    2.231378    -10.846525    -0.452349
H-H-0.3615    -2.423939    -7.006167    1.278059
H-H1-0.1469    -3.143007    -6.559495    3.422714
H-H1-0.1469    -1.494364    -6.704584    4.023594
H-H1-0.1469    -2.429259    -8.153456    3.689282
H-H-0.3570    4.828120    0.684785    -0.816437
H-HC-0.1060    3.710173    3.434604    -2.706288
H-HC-0.1060    4.588171    1.902533    -2.825678
H-HC-0.1060    5.244771    3.226201    -1.873716

D * 8 9 * F
