--Link1-- 
%chk=CHI3_-80
%NoSave 
#SP HF/6-31G*  Geom=(ModRedundant)  

paramfit run
  
0    1 
C-CT--0.3208    0.000000    0.000000    0.000000
N-N--0.5622    1.448187    0.000000    0.000000
C-C-0.8053    2.123200    0.475920    1.072365
O-O--0.6151    1.590179    0.696732    2.124447
C-CX-0.0839    3.650505    0.594143    0.921539
C-CU--0.3230    4.198902    1.549248    1.986845
C-CU--0.0657    4.307751    -0.809116    1.023981
C-CU--0.0109    4.133566    -1.622781    2.319066
C-CU-0.0816    2.832729    -2.433298    2.484965
C-CM--0.2354    1.647422    -1.609124    2.930007
C-CM--0.2653    0.684215    -1.108185    2.173667
C-CU-0.1214    0.531990    -1.235671    0.676895
C-CU--0.0354    -0.516669    -2.271256    0.232547
C-CU--0.0984    -1.928687    -1.935846    0.731164
C-CU-0.1300    -3.108641    -2.796333    0.209710
C-CU--0.3561    -4.387973    -2.299286    0.902318
N-N--0.7186    -3.227279    -2.598138    -1.228405
C-C-0.8537    -4.089966    -3.340513    -1.981868
C-CT--0.3868    -3.835341    -3.297012    -3.471190
O-O--0.6323    -4.985153    -3.981338    -1.505290
C-C-0.7903    -2.783336    -4.285015    0.468029
O-O--0.6136    -2.097295    -4.898308    -0.304725
N-N--0.5650    -3.210615    -4.822577    1.630973
C-CT--0.3231    -2.983967    -6.225120    1.913294
N-N--0.7191    3.997412    1.070275    -0.425452
C-C-0.8539    3.587019    2.267163    -0.934086
C-CT--0.3903    4.328148    2.727659    -2.172145
O-O--0.6290    2.697134    2.905425    -0.447397
H-H1-0.1459    -0.403259    1.006147    0.000000
H-H1-0.1459    -0.364960    -0.516002    0.875939
H-H1-0.1459    -0.345658    -0.522086    -0.883346
H-H-0.3572    1.904244    0.070913    -0.879357
H-HC-0.0997    3.932135    1.221760    2.980082
H-HC-0.0997    5.280920    1.595925    1.907500
H-HC-0.0997    3.792711    2.540594    1.848395
H-HC-0.0347    5.374584    -0.643250    0.891407
H-HC-0.0347    3.984642    -1.403324    0.174983
H-HC-0.0243    4.961565    -2.324757    2.354635
H-HC-0.0243    4.250121    -0.975721    3.182259
H-HC-0.0171    2.986016    -3.241389    3.188425
H-HC-0.0171    2.624493    -2.903279    1.530193
H-HA-0.1313    1.592497    -1.419665    3.989819
H-HA-0.1359    -0.090075    -0.544740    2.670423
H-HC-0.0092    1.480351    -1.497451    0.223520
H-HC-0.0092    0.261407    -0.261120    0.272384
H-HC-0.0318    -0.491917    -2.322028    -0.852434
H-HC-0.0318    -0.221950    -3.251542    0.583275
H-HC-0.0435    -2.164191    -0.903609    0.481048
H-HC-0.0435    -1.938962    -2.003152    1.812698
H-HC-0.1066    -4.584936    -1.283579    0.579632
H-HC-0.1066    -4.269097    -2.280273    1.980691
H-HC-0.1066    -5.242735    -2.906391    0.644356
H-H-0.3529    -2.386371    -2.340611    -1.692373
H-HC-0.1047    -4.737583    -3.578980    -3.992259
H-HC-0.1047    -3.056371    -4.014841    -3.710050
H-HC-0.1047    -3.510757    -2.316200    -3.801393
H-H-0.3615    -3.955750    -4.376970    2.112138
H-H1-0.1469    -3.288691    -6.426131    2.931949
H-H1-0.1469    -1.933478    -6.453281    1.808209
H-H1-0.1469    -3.543218    -6.866905    1.240164
H-H-0.3570    4.828120    0.684785    -0.816437
H-HC-0.1060    3.710173    3.434604    -2.706288
H-HC-0.1060    4.588171    1.902533    -2.825678
H-HC-0.1060    5.244771    3.226201    -1.873716

D * 8 9 * F
