--Link1-- 
%chk=CHI3_-120
%NoSave 
#SP HF/6-31G*  Geom=(ModRedundant)  

paramfit run
  
0    1 
C-CT--0.3208    0.000000    0.000000    0.000000
N-N--0.5622    1.448187    0.000000    0.000000
C-C-0.8053    2.123200    0.475920    1.072365
O-O--0.6151    1.590179    0.696732    2.124447
C-CX-0.0839    3.650505    0.594143    0.921539
C-CU--0.3230    4.198902    1.549248    1.986845
C-CU--0.0657    4.307751    -0.809116    1.023981
C-CU--0.0109    4.133566    -1.622781    2.319066
C-CU-0.0816    2.832729    -2.433298    2.484965
C-CM--0.2354    2.010782    -2.036955    3.688956
C-CM--0.2653    0.959583    -1.233922    3.718564
C-CU-0.1214    0.321533    -0.513454    2.555133
C-CU--0.0354    -0.976312    -1.163141    2.042229
C-CU--0.0984    -2.077264    -1.210436    3.110209
C-CU-0.1300    -3.491694    -1.676370    2.677841
C-CU--0.3561    -4.379505    -1.692583    3.932823
N-N--0.7186    -4.023512    -0.716783    1.719774
C-C-0.8537    -5.195100    -0.944706    1.057588
C-CT--0.3868    -5.421779    -0.072253    -0.155774
O-O--0.6323    -5.989875    -1.772835    1.406410
C-C-0.7903    -3.363982    -3.045304    1.971842
O-O--0.6136    -3.074975    -3.101665    0.806841
N-N--0.5650    -3.487142    -4.152814    2.734884
C-CT--0.3231    -3.428940    -5.466943    2.128353
N-N--0.7191    3.997412    1.070275    -0.425452
C-C-0.8539    3.587019    2.267163    -0.934086
C-CT--0.3903    4.328148    2.727659    -2.172145
O-O--0.6290    2.697134    2.905425    -0.447397
H-H1-0.1459    -0.403259    1.006147    0.000000
H-H1-0.1459    -0.364960    -0.516002    0.875939
H-H1-0.1459    -0.345658    -0.522086    -0.883346
H-H-0.3572    1.904244    0.070913    -0.879357
H-HC-0.0997    3.932135    1.221760    2.980082
H-HC-0.0997    5.280920    1.595925    1.907500
H-HC-0.0997    3.792711    2.540594    1.848395
H-HC-0.0347    5.374584    -0.643250    0.891407
H-HC-0.0347    3.984642    -1.403324    0.174983
H-HC-0.0243    4.961565    -2.324757    2.354635
H-HC-0.0243    4.250121    -0.975721    3.182259
H-HC-0.0171    3.058707    -3.490142    2.543092
H-HC-0.0171    2.254855    -2.300433    1.577087
H-HA-0.1313    2.327973    -2.470326    4.623671
H-HA-0.1359    0.492242    -1.068674    4.676712
H-HC-0.0092    1.017132    -0.446182    1.727437
H-HC-0.0092    0.109632    0.511507    2.857039
H-HC-0.0318    -1.305627    -0.601621    1.172389
H-HC-0.0318    -0.759927    -2.162148    1.687274
H-HC-0.0435    -2.197575    -0.222125    3.548731
H-HC-0.0435    -1.755964    -1.867629    3.909718
H-HC-0.1066    -4.489714    -0.676349    4.292966
H-HC-0.1066    -3.923826    -2.271842    4.729188
H-HC-0.1066    -5.363378    -2.083173    3.720287
H-H-0.3529    -3.341661    -0.215950    1.197321
H-HC-0.1047    -6.477024    -0.048203    -0.381474
H-HC-0.1047    -4.895100    -0.508881    -0.999036
H-HC-0.1047    -5.053998    0.937225    -0.007209
H-H-0.3615    -3.952612    -4.075784    3.608219
H-H1-0.1469    -3.425289    -6.210463    2.914537
H-H1-0.1469    -2.521975    -5.561726    1.549511
H-H1-0.1469    -4.274697    -5.645435    1.472160
H-H-0.3570    4.828120    0.684785    -0.816437
H-HC-0.1060    3.710173    3.434604    -2.706288
H-HC-0.1060    4.588171    1.902533    -2.825678
H-HC-0.1060    5.244771    3.226201    -1.873716

D * 8 9 * F
