--Link1-- 
%chk=CHI3_80
%NoSave 
#SP HF/6-31G*  Geom=(ModRedundant)  

paramfit run
  
0    1 
C-CT--0.3208    0.000000    0.000000    0.000000
N-N--0.5622    1.448187    0.000000    0.000000
C-C-0.8053    2.123200    0.475920    1.072365
O-O--0.6151    1.590179    0.696732    2.124447
C-CX-0.0839    3.650505    0.594143    0.921539
C-CU--0.3230    4.198902    1.549248    1.986845
C-CU--0.0657    4.307751    -0.809116    1.023981
C-CU--0.0109    4.133566    -1.622781    2.319066
C-CU-0.0816    2.832729    -2.433298    2.484965
C-CM--0.2354    2.830024    -3.749875    1.744090
C-CM--0.2653    3.086729    -4.951593    2.234733
C-CU-0.1214    3.447305    -5.304445    3.657841
C-CU--0.0354    2.289602    -5.907003    4.474059
C-CU--0.0984    1.765165    -7.220196    3.877902
C-CU-0.1300    0.721186    -8.025015    4.694614
C-CU--0.3561    0.319405    -9.249677    3.856624
N-N--0.7186    1.343971    -8.468661    5.934310
C-C-0.8537    0.619899    -9.077950    6.917948
C-CT--0.3868    1.298239    -9.133395    8.267609
O-O--0.6323    -0.472702    -9.537382    6.732783
C-C-0.7903    -0.453412    -7.086181    5.051876
O-O--0.6136    -0.380720    -6.361313    6.007497
N-N--0.5650    -1.498744    -7.044664    4.197746
C-CT--0.3231    -2.654477    -6.224823    4.498317
N-N--0.7191    3.997412    1.070275    -0.425452
C-C-0.8539    3.587019    2.267163    -0.934086
C-CT--0.3903    4.328148    2.727659    -2.172145
O-O--0.6290    2.697134    2.905425    -0.447397
H-H1-0.1459    -0.403259    1.006147    0.000000
H-H1-0.1459    -0.364960    -0.516002    0.875939
H-H1-0.1459    -0.345658    -0.522086    -0.883346
H-H-0.3572    1.904244    0.070913    -0.879357
H-HC-0.0997    3.932135    1.221760    2.980082
H-HC-0.0997    5.280920    1.595925    1.907500
H-HC-0.0997    3.792711    2.540594    1.848395
H-HC-0.0347    5.374584    -0.643250    0.891407
H-HC-0.0347    3.984642    -1.403324    0.174983
H-HC-0.0243    4.961565    -2.324757    2.354635
H-HC-0.0243    4.250121    -0.975721    3.182259
H-HC-0.0171    1.984364    -1.843844    2.162190
H-HC-0.0171    2.693543    -2.601263    3.547156
H-HA-0.1313    2.584601    -3.686061    0.696326
H-HA-0.1359    3.032268    -5.784897    1.551798
H-HC-0.0092    3.811640    -4.428919    4.181462
H-HC-0.0092    4.274602    -6.012855    3.639671
H-HC-0.0318    2.644903    -6.058358    5.489553
H-HC-0.0318    1.487378    -5.184241    4.543934
H-HC-0.0435    2.600505    -7.892793    3.695267
H-HC-0.0435    1.320219    -7.008820    2.912659
H-HC-0.1066    1.183970    -9.893999    3.747279
H-HC-0.1066    0.003689    -8.957809    2.860372
H-HC-0.1066    -0.466121    -9.817817    4.331919
H-H-0.3529    2.092403    -7.901005    6.260391
H-HC-0.1047    0.853226    -9.922402    8.854544
H-HC-0.1047    1.135802    -8.187469    8.775510
H-HC-0.1047    2.366936    -9.296990    8.180981
H-H-0.3615    -1.631851    -7.807042    3.576158
H-H1-0.1469    -3.317138    -6.234952    3.642923
H-H1-0.1469    -2.341347    -5.208929    4.689461
H-H1-0.1469    -3.190358    -6.588058    5.369319
H-H-0.3570    4.828120    0.684785    -0.816437
H-HC-0.1060    3.710173    3.434604    -2.706288
H-HC-0.1060    4.588171    1.902533    -2.825678
H-HC-0.1060    5.244771    3.226201    -1.873716

D * 8 9 * F
