--Link1-- 
%chk=CHI3_130
%NoSave 
#SP HF/6-31G*  Geom=(ModRedundant)  

paramfit run
  
0    1 
C-CT--0.3208    0.000000    0.000000    0.000000
N-N--0.5622    1.448187    0.000000    0.000000
C-C-0.8053    2.123200    0.475920    1.072365
O-O--0.6151    1.590179    0.696732    2.124447
C-CX-0.0839    3.650505    0.594143    0.921539
C-CU--0.3230    4.198902    1.549248    1.986845
C-CU--0.0657    4.307751    -0.809116    1.023981
C-CU--0.0109    4.133566    -1.622781    2.319066
C-CU-0.0816    2.832729    -2.433298    2.484965
C-CM--0.2354    3.052615    -3.874148    2.882305
C-CM--0.2653    2.978019    -4.396180    4.095843
C-CU-0.1214    2.655355    -3.679841    5.385223
C-CU--0.0354    1.215729    -3.894451    5.886208
C-CU--0.0984    0.904836    -5.367861    6.181710
C-CU-0.1300    -0.448360    -5.704748    6.859954
C-CU--0.3561    -0.537243    -7.234392    6.985415
N-N--0.7186    -0.462874    -5.107415    8.188304
C-C-0.8537    -1.586849    -5.117718    8.962663
C-CT--0.3868    -1.569863    -4.150283    10.123949
O-O--0.6323    -2.521400    -5.837561    8.744528
C-C-0.7903    -1.586211    -5.067836    6.030279
O-O--0.6136    -1.881755    -3.914423    6.192214
N-N--0.5650    -2.149142    -5.823718    5.062946
C-CT--0.3231    -3.254446    -5.305996    4.282902
N-N--0.7191    3.997412    1.070275    -0.425452
C-C-0.8539    3.587019    2.267163    -0.934086
C-CT--0.3903    4.328148    2.727659    -2.172145
O-O--0.6290    2.697134    2.905425    -0.447397
H-H1-0.1459    -0.403259    1.006147    0.000000
H-H1-0.1459    -0.364960    -0.516002    0.875939
H-H1-0.1459    -0.345658    -0.522086    -0.883346
H-H-0.3572    1.904244    0.070913    -0.879357
H-HC-0.0997    3.932135    1.221760    2.980082
H-HC-0.0997    5.280920    1.595925    1.907500
H-HC-0.0997    3.792711    2.540594    1.848395
H-HC-0.0347    5.374584    -0.643250    0.891407
H-HC-0.0347    3.984642    -1.403324    0.174983
H-HC-0.0243    4.961565    -2.324757    2.354635
H-HC-0.0243    4.250121    -0.975721    3.182259
H-HC-0.0171    2.256926    -2.402695    1.569062
H-HC-0.0171    2.232840    -1.926256    3.232545
H-HA-0.1313    3.293264    -4.542043    2.071060
H-HA-0.1359    3.163003    -5.454858    4.189349
H-HC-0.0092    2.820906    -2.614963    5.275257
H-HC-0.0092    3.351587    -4.017222    6.152054
H-HC-0.0318    1.081042    -3.285208    6.775621
H-HC-0.0318    0.520581    -3.508012    5.152543
H-HC-0.0435    1.682578    -5.779733    6.821250
H-HC-0.0435    0.941795    -5.922727    5.251598
H-HC-0.1066    0.236974    -7.572364    7.664343
H-HC-0.1066    -0.364732    -7.717857    6.029443
H-HC-0.1066    -1.491996    -7.547301    7.380728
H-H-0.3529    0.109818    -4.301996    8.298008
H-HC-0.1047    -2.284513    -4.475032    10.864811
H-HC-0.1047    -1.864697    -3.169948    9.761814
H-HC-0.1047    -0.585848    -4.068382    10.572712
H-H-0.3615    -2.056017    -6.810334    5.119737
H-H1-0.1469    -3.477450    -6.008778    3.490887
H-H1-0.1469    -2.979470    -4.357558    3.845317
H-H1-0.1469    -4.141864    -5.159037    4.890064
H-H-0.3570    4.828120    0.684785    -0.816437
H-HC-0.1060    3.710173    3.434604    -2.706288
H-HC-0.1060    4.588171    1.902533    -2.825678
H-HC-0.1060    5.244771    3.226201    -1.873716

D * 8 9 * F
