--Link1-- 
%chk=CHI3_-110
%NoSave 
#SP HF/6-31G*  Geom=(ModRedundant)  

paramfit run
  
0    1 
C-CT--0.3208    0.000000    0.000000    0.000000
N-N--0.5622    1.448187    0.000000    0.000000
C-C-0.8053    2.123200    0.475920    1.072365
O-O--0.6151    1.590179    0.696732    2.124447
C-CX-0.0839    3.650505    0.594143    0.921539
C-CU--0.3230    4.198902    1.549248    1.986845
C-CU--0.0657    4.307751    -0.809116    1.023981
C-CU--0.0109    4.133566    -1.622781    2.319066
C-CU-0.0816    2.832729    -2.433298    2.484965
C-CM--0.2354    1.898063    -1.886831    3.538555
C-CM--0.2653    0.839126    -1.115042    3.354844
C-CU-0.1214    0.303081    -0.588189    2.045327
C-CU--0.0354    -0.933790    -1.338445    1.519181
C-CU--0.0984    -2.128336    -1.257646    2.479101
C-CU-0.1300    -3.490940    -1.817403    1.994716
C-CU--0.3561    -4.490979    -1.673205    3.153414
N-N--0.7186    -3.943107    -1.021445    0.861788
C-C-0.8537    -5.045477    -1.373109    0.137793
C-CT--0.3868    -5.169139    -0.692756    -1.206317
O-O--0.6323    -5.859209    -2.161532    0.531967
C-C-0.7903    -3.282004    -3.270881    1.512562
O-O--0.6136    -2.885621    -3.488975    0.399348
N-N--0.5650    -3.462109    -4.258200    2.416301
C-CT--0.3231    -3.332251    -5.644753    2.017794
N-N--0.7191    3.997412    1.070275    -0.425452
C-C-0.8539    3.587019    2.267163    -0.934086
C-CT--0.3903    4.328148    2.727659    -2.172145
O-O--0.6290    2.697134    2.905425    -0.447397
H-H1-0.1459    -0.403259    1.006147    0.000000
H-H1-0.1459    -0.364960    -0.516002    0.875939
H-H1-0.1459    -0.345658    -0.522086    -0.883346
H-H-0.3572    1.904244    0.070913    -0.879357
H-HC-0.0997    3.932135    1.221760    2.980082
H-HC-0.0997    5.280920    1.595925    1.907500
H-HC-0.0997    3.792711    2.540594    1.848395
H-HC-0.0347    5.374584    -0.643250    0.891407
H-HC-0.0347    3.984642    -1.403324    0.174983
H-HC-0.0243    4.961565    -2.324757    2.354635
H-HC-0.0243    4.250121    -0.975721    3.182259
H-HC-0.0171    3.064957    -3.464311    2.718301
H-HC-0.0171    2.339934    -2.448833    1.519177
H-HA-0.1313    2.132419    -2.171217    4.551627
H-HA-0.1359    0.283058    -0.823924    4.232227
H-HC-0.0092    1.071540    -0.624536    1.282690
H-HC-0.0092    0.051883    0.464094    2.172582
H-HC-0.0318    -1.187760    -0.918177    0.550033
H-HC-0.0318    -0.673521    -2.372673    1.336250
H-HC-0.0435    -2.300568    -0.219382    2.754557
H-HC-0.0435    -1.874685    -1.782985    3.392354
H-HC-0.1066    -4.646223    -0.618483    3.348462
H-HC-0.1066    -4.104177    -2.118507    4.064167
H-HC-0.1066    -5.446184    -2.115477    2.913170
H-H-0.3529    -3.221803    -0.584884    0.334675
H-HC-0.1047    -6.199137    -0.728678    -1.527056
H-HC-0.1047    -4.561398    -1.234026    -1.925207
H-HC-0.1047    -4.828796    0.336618    -1.175695
H-H-0.3615    -4.007399    -4.066637    3.223316
H-H1-0.1469    -3.392593    -6.265487    2.902084
H-H1-0.1469    -2.374478    -5.799750    1.543165
H-H1-0.1469    -4.111362    -5.938373    1.321714
H-H-0.3570    4.828120    0.684785    -0.816437
H-HC-0.1060    3.710173    3.434604    -2.706288
H-HC-0.1060    4.588171    1.902533    -2.825678
H-HC-0.1060    5.244771    3.226201    -1.873716

D * 8 9 * F
