--Link1-- 
%chk=CHI3_110
%NoSave 
#SP HF/6-31G*  Geom=(ModRedundant)  

paramfit run
  
0    1 
C-CT--0.3208    0.000000    0.000000    0.000000
N-N--0.5622    1.448187    0.000000    0.000000
C-C-0.8053    2.123200    0.475920    1.072365
O-O--0.6151    1.590179    0.696732    2.124447
C-CX-0.0839    3.650505    0.594143    0.921539
C-CU--0.3230    4.198902    1.549248    1.986845
C-CU--0.0657    4.307751    -0.809116    1.023981
C-CU--0.0109    4.133566    -1.622781    2.319066
C-CU-0.0816    2.832729    -2.433298    2.484965
C-CM--0.2354    3.026488    -3.929510    2.406966
C-CM--0.2653    3.131578    -4.782378    3.413113
C-CU-0.1214    3.084841    -4.470567    4.889711
C-CU--0.0354    1.743921    -4.807634    5.566383
C-CU--0.0984    1.396296    -6.299912    5.481681
C-CU-0.1300    0.163437    -6.806551    6.274160
C-CU--0.3561    0.000746    -8.305187    5.972378
N-N--0.7186    0.418727    -6.623030    7.696369
C-C-0.8537    -0.551378    -6.847706    8.629896
C-CT--0.3868    -0.270736    -6.261765    9.994711
O-O--0.6323    -1.553481    -7.463045    8.392642
C-C-0.7903    -1.058817    -5.943721    5.886416
O-O--0.6136    -1.247685    -4.884957    6.422398
N-N--0.5650    -1.828661    -6.378489    4.865486
C-CT--0.3231    -3.017856    -5.644469    4.484393
N-N--0.7191    3.997412    1.070275    -0.425452
C-C-0.8539    3.587019    2.267163    -0.934086
C-CT--0.3903    4.328148    2.727659    -2.172145
O-O--0.6290    2.697134    2.905425    -0.447397
H-H1-0.1459    -0.403259    1.006147    0.000000
H-H1-0.1459    -0.364960    -0.516002    0.875939
H-H1-0.1459    -0.345658    -0.522086    -0.883346
H-H-0.3572    1.904244    0.070913    -0.879357
H-HC-0.0997    3.932135    1.221760    2.980082
H-HC-0.0997    5.280920    1.595925    1.907500
H-HC-0.0997    3.792711    2.540594    1.848395
H-HC-0.0347    5.374584    -0.643250    0.891407
H-HC-0.0347    3.984642    -1.403324    0.174983
H-HC-0.0243    4.961565    -2.324757    2.354635
H-HC-0.0243    4.250121    -0.975721    3.182259
H-HC-0.0171    2.109192    -2.130790    1.739078
H-HC-0.0171    2.405821    -2.160653    3.443739
H-HA-0.1313    3.079072    -4.333787    1.409014
H-HA-0.1359    3.262362    -5.824021    3.164848
H-HC-0.0092    3.296029    -3.421710    5.059312
H-HC-0.0092    3.881227    -5.024145    5.385609
H-HC-0.0318    1.805358    -4.483340    6.601483
H-HC-0.0318    0.957500    -4.216833    5.115466
H-HC-0.0435    2.245850    -6.888381    5.821528
H-HC-0.0435    1.235189    -6.559335    4.441924
H-HC-0.1066    0.858401    -8.834447    6.370994
H-HC-0.1066    -0.027134    -8.490136    4.903548
H-HC-0.1066    -0.888394    -8.710280    6.431800
H-H-0.3529    1.051792    -5.890548    7.923111
H-HC-0.1047    -0.864451    -6.781498    10.731216
H-HC-0.1047    -0.561274    -5.215499    9.988370
H-HC-0.1047    0.779632    -6.324372    10.257748
H-H-0.3615    -1.789961    -7.339572    4.620267
H-H1-0.1469    -3.419736    -6.083066    3.580487
H-H1-0.1469    -2.763662    -4.612404    4.292422
H-H1-0.1469    -3.774666    -5.672300    5.261707
H-H-0.3570    4.828120    0.684785    -0.816437
H-HC-0.1060    3.710173    3.434604    -2.706288
H-HC-0.1060    4.588171    1.902533    -2.825678
H-HC-0.1060    5.244771    3.226201    -1.873716

D * 8 9 * F
