--Link1-- 
%chk=CHI3_100
%NoSave 
#SP HF/6-31G*  Geom=(ModRedundant)  

paramfit run
  
0    1 
C-CT--0.3208    0.000000    0.000000    0.000000
N-N--0.5622    1.448187    0.000000    0.000000
C-C-0.8053    2.123200    0.475920    1.072365
O-O--0.6151    1.590179    0.696732    2.124447
C-CX-0.0839    3.650505    0.594143    0.921539
C-CU--0.3230    4.198902    1.549248    1.986845
C-CU--0.0657    4.307751    -0.809116    1.023981
C-CU--0.0109    4.133566    -1.622781    2.319066
C-CU-0.0816    2.832729    -2.433298    2.484965
C-CM--0.2354    2.980584    -3.903882    2.172234
C-CM--0.2653    3.153997    -4.896920    3.029300
C-CU-0.1214    3.248164    -4.805606    4.533476
C-CU--0.0354    1.965384    -5.222678    5.275158
C-CU--0.0984    1.573720    -6.681916    5.006571
C-CU-0.1300    0.404630    -7.285055    5.827606
C-CU--0.3561    0.177411    -8.720796    5.327134
N-N--0.7186    0.791350    -7.316213    7.231532
C-C-0.8537    -0.096285    -7.664417    8.208218
C-CT--0.3868    0.320747    -7.289423    9.611881
O-O--0.6323    -1.130982    -8.226052    7.977764
C-C-0.7903    -0.825202    -6.359961    5.684642
O-O--0.6136    -0.938129    -5.389574    6.384304
N-N--0.5650    -1.694530    -6.630283    4.687057
C-CT--0.3231    -2.894125    -5.833957    4.528817
N-N--0.7191    3.997412    1.070275    -0.425452
C-C-0.8539    3.587019    2.267163    -0.934086
C-CT--0.3903    4.328148    2.727659    -2.172145
O-O--0.6290    2.697134    2.905425    -0.447397
H-H1-0.1459    -0.403259    1.006147    0.000000
H-H1-0.1459    -0.364960    -0.516002    0.875939
H-H1-0.1459    -0.345658    -0.522086    -0.883346
H-H-0.3572    1.904244    0.070913    -0.879357
H-HC-0.0997    3.932135    1.221760    2.980082
H-HC-0.0997    5.280920    1.595925    1.907500
H-HC-0.0997    3.792711    2.540594    1.848395
H-HC-0.0347    5.374584    -0.643250    0.891407
H-HC-0.0347    3.984642    -1.403324    0.174983
H-HC-0.0243    4.961565    -2.324757    2.354635
H-HC-0.0243    4.250121    -0.975721    3.182259
H-HC-0.0171    2.052982    -2.015539    1.861398
H-HC-0.0171    2.500831    -2.299858    3.508621
H-HA-0.1313    2.932926    -4.157259    1.125505
H-HA-0.1359    3.235401    -5.892085    2.620911
H-HC-0.0092    3.500346    -3.795798    4.833741
H-HC-0.0092    4.071579    -5.435701    4.867485
H-HC-0.0318    2.127870    -5.055241    6.336260
H-HC-0.0318    1.156881    -4.562518    4.989953
H-HC-0.0435    2.435152    -7.324153    5.176862
H-HC-0.0435    1.313230    -6.783318    3.959569
H-HC-0.1066    1.053698    -9.313233    5.563185
H-HC-0.1066    0.048845    -8.745849    4.249997
H-HC-0.1066    -0.676830    -9.178525    5.803050
H-H-0.3529    1.460656    -6.632765    7.502897
H-HC-0.1047    -0.217362    -7.904899    10.316643
H-HC-0.1047    0.057513    -6.250253    9.784967
H-HC-0.1047    1.388579    -7.402658    9.764506
H-H-0.3615    -1.702487    -7.545121    4.301938
H-H1-0.1469    -3.386675    -6.129709    3.611841
H-H1-0.1469    -2.632063    -4.787980    4.466508
H-H1-0.1469    -3.578439    -5.967005    5.360542
H-H-0.3570    4.828120    0.684785    -0.816437
H-HC-0.1060    3.710173    3.434604    -2.706288
H-HC-0.1060    4.588171    1.902533    -2.825678
H-HC-0.1060    5.244771    3.226201    -1.873716

D * 8 9 * F
