--Link1-- 
%chk=CHI3_50
%NoSave 
#SP HF/6-31G*  Geom=(ModRedundant)  

paramfit run
  
0    1 
C-CT--0.3208    0.000000    0.000000    0.000000
N-N--0.5622    1.448187    0.000000    0.000000
C-C-0.8053    2.123200    0.475920    1.072365
O-O--0.6151    1.590179    0.696732    2.124447
C-CX-0.0839    3.650505    0.594143    0.921539
C-CU--0.3230    4.198902    1.549248    1.986845
C-CU--0.0657    4.307751    -0.809116    1.023981
C-CU--0.0109    4.133566    -1.622781    2.319066
C-CU-0.0816    2.832729    -2.433298    2.484965
C-CM--0.2354    2.495291    -3.304066    1.297456
C-CM--0.2653    2.729017    -4.598565    1.154624
C-CU-0.1214    3.392511    -5.526380    2.143911
C-CU--0.0354    2.415877    -6.427592    2.920807
C-CU--0.0984    1.613504    -7.360395    2.003752
C-CU-0.1300    0.723424    -8.443832    2.665996
C-CU--0.3561    -0.011630    -9.192133    1.542077
N-N--0.7186    1.582746    -9.373392    3.386424
C-C-0.8537    1.064223    -10.350145    4.186513
C-CT--0.3868    2.048486    -10.976052    5.147904
O-O--0.6323    -0.084671    -10.691664    4.136026
C-C-0.7903    -0.209968    -7.756060    3.687991
O-O--0.6136    0.181590    -7.511475    4.797401
N-N--0.5650    -1.424404    -7.357619    3.251678
C-CT--0.3231    -2.367348    -6.752850    4.169999
N-N--0.7191    3.997412    1.070275    -0.425452
C-C-0.8539    3.587019    2.267163    -0.934086
C-CT--0.3903    4.328148    2.727659    -2.172145
O-O--0.6290    2.697134    2.905425    -0.447397
H-H1-0.1459    -0.403259    1.006147    0.000000
H-H1-0.1459    -0.364960    -0.516002    0.875939
H-H1-0.1459    -0.345658    -0.522086    -0.883346
H-H-0.3572    1.904244    0.070913    -0.879357
H-HC-0.0997    3.932135    1.221760    2.980082
H-HC-0.0997    5.280920    1.595925    1.907500
H-HC-0.0997    3.792711    2.540594    1.848395
H-HC-0.0347    5.374584    -0.643250    0.891407
H-HC-0.0347    3.984642    -1.403324    0.174983
H-HC-0.0243    4.961565    -2.324757    2.354635
H-HC-0.0243    4.250121    -0.975721    3.182259
H-HC-0.0171    2.002925    -1.767136    2.682492
H-HC-0.0171    2.946195    -3.041955    3.375187
H-HA-0.1313    2.003878    -2.797824    0.482381
H-HA-0.1359    2.411073    -5.058084    0.231848
H-HC-0.0092    3.973212    -4.958563    2.860736
H-HC-0.0092    4.103110    -6.153654    1.607097
H-HC-0.0318    2.994924    -6.998410    3.641394
H-HC-0.0318    1.743971    -5.809422    3.501530
H-HC-0.0435    2.294658    -7.884648    1.336877
H-HC-0.0435    0.967666    -6.757460    1.376286
H-HC-0.1066    0.719198    -9.722165    0.942464
H-HC-0.1066    -0.531883    -8.502465    0.885514
H-HC-0.1066    -0.712022    -9.913749    1.935091
H-H-0.3529    2.448335    -8.996599    3.698666
H-HC-0.1047    1.678445    -11.943154    5.452609
H-HC-0.1047    2.126771    -10.340875    6.025141
H-HC-0.1047    3.035704    -11.080567    4.711030
H-H-0.3615    -1.794548    -7.779879    2.433143
H-H1-0.1469    -3.220044    -6.398351    3.605942
H-H1-0.1469    -1.903337    -5.915769    4.670615
H-H1-0.1469    -2.705316    -7.457969    4.922554
H-H-0.3570    4.828120    0.684785    -0.816437
H-HC-0.1060    3.710173    3.434604    -2.706288
H-HC-0.1060    4.588171    1.902533    -2.825678
H-HC-0.1060    5.244771    3.226201    -1.873716

D * 8 9 * F
