--Link1-- 
%chk=CHI3_-160
%NoSave 
#SP HF/6-31G*  Geom=(ModRedundant)  

paramfit run
  
0    1 
C-CT--0.3208    0.000000    0.000000    0.000000
N-N--0.5622    1.448187    0.000000    0.000000
C-C-0.8053    2.123200    0.475920    1.072365
O-O--0.6151    1.590179    0.696732    2.124447
C-CX-0.0839    3.650505    0.594143    0.921539
C-CU--0.3230    4.198902    1.549248    1.986845
C-CU--0.0657    4.307751    -0.809116    1.023981
C-CU--0.0109    4.133566    -1.622781    2.319066
C-CU-0.0816    2.832729    -2.433298    2.484965
C-CM--0.2354    2.516023    -2.801470    3.915498
C-CM--0.2653    1.683924    -2.187222    4.740766
C-CU-0.1214    0.845016    -0.964379    4.456792
C-CU--0.0354    -0.640192    -1.264029    4.184887
C-CU--0.0984    -1.336912    -1.934825    5.376327
C-CU-0.1300    -2.873561    -2.130613    5.305444
C-CU--0.3561    -3.306901    -2.872113    6.580530
N-N--0.7186    -3.506997    -0.819558    5.267716
C-C-0.8537    -4.848784    -0.681529    5.058876
C-CT--0.3868    -5.293563    0.709555    4.669179
O-O--0.6323    -5.622770    -1.590793    5.174306
C-C-0.7903    -3.214820    -2.871114    3.992460
O-O--0.6136    -3.323993    -2.260627    2.963229
N-N--0.5650    -3.279582    -4.219365    4.037250
C-CT--0.3231    -3.644686    -4.972011    2.854700
N-N--0.7191    3.997412    1.070275    -0.425452
C-C-0.8539    3.587019    2.267163    -0.934086
C-CT--0.3903    4.328148    2.727659    -2.172145
O-O--0.6290    2.697134    2.905425    -0.447397
H-H1-0.1459    -0.403259    1.006147    0.000000
H-H1-0.1459    -0.364960    -0.516002    0.875939
H-H1-0.1459    -0.345658    -0.522086    -0.883346
H-H-0.3572    1.904244    0.070913    -0.879357
H-HC-0.0997    3.932135    1.221760    2.980082
H-HC-0.0997    5.280920    1.595925    1.907500
H-HC-0.0997    3.792711    2.540594    1.848395
H-HC-0.0347    5.374584    -0.643250    0.891407
H-HC-0.0347    3.984642    -1.403324    0.174983
H-HC-0.0243    4.961565    -2.324757    2.354635
H-HC-0.0243    4.250121    -0.975721    3.182259
H-HC-0.0171    2.879095    -3.335706    1.889252
H-HC-0.0171    2.029244    -1.838492    2.064903
H-HA-0.1313    3.032913    -3.669846    4.290813
H-HA-0.1359    1.580101    -2.598496    5.732651
H-HC-0.0092    1.243249    -0.424527    3.606241
H-HC-0.0092    0.920286    -0.288011    5.307354
H-HC-0.0318    -1.125677    -0.325664    3.931610
H-HC-0.0318    -0.723593    -1.889205    3.305666
H-HC-0.0435    -1.139295    -1.361640    6.279621
H-HC-0.0435    -0.897724    -2.913866    5.527790
H-HC-0.1066    -3.119856    -2.231833    7.434718
H-HC-0.1066    -2.729904    -3.780016    6.722548
H-HC-0.1066    -4.359350    -3.112551    6.563860
H-H-0.3529    -2.949924    -0.089618    4.886179
H-HC-0.1047    -6.345028    0.818407    4.887432
H-HC-0.1047    -5.144954    0.833611    3.600699
H-HC-0.1047    -4.728910    1.478327    5.185452
H-H-0.3615    -3.423778    -4.656734    4.916583
H-H1-0.1469    -3.520895    -6.026359    3.064337
H-H1-0.1469    -2.998545    -4.697734    2.033786
H-H1-0.1469    -4.672148    -4.784969    2.559588
H-H-0.3570    4.828120    0.684785    -0.816437
H-HC-0.1060    3.710173    3.434604    -2.706288
H-HC-0.1060    4.588171    1.902533    -2.825678
H-HC-0.1060    5.244771    3.226201    -1.873716

D * 8 9 * F
