--Link1-- 
%chk=CHI4_-130
%NoSave 
#SP HF/6-31G*  Geom=(ModRedundant)  

paramfit run
  
0    1 
C-CT--0.3208    0.000000    0.000000    0.000000
N-N--0.5622    1.448187    0.000000    0.000000
C-C-0.8053    2.123200    0.475920    1.072365
O-O--0.6151    1.590179    0.696732    2.124447
C-CX-0.0839    3.650505    0.594143    0.921539
C-CU--0.3230    4.198902    1.549248    1.986845
C-CU--0.0657    4.307751    -0.809116    1.023981
C-CU--0.0109    4.133566    -1.622781    2.319066
C-CU-0.0816    2.832729    -2.433298    2.484965
C-CM--0.2354    2.579342    -3.423586    1.372579
C-CM--0.2653    1.468852    -3.580734    0.670530
C-CU-0.1214    0.178462    -2.808974    0.808492
C-CU--0.0354    -0.035520    -1.733874    -0.272219
C-CU--0.0984    -0.093309    -2.321197    -1.688773
C-CU-0.1300    -0.480863    -1.374632    -2.854304
C-CU--0.3561    -0.404227    -2.186560    -4.157512
N-N--0.7186    -1.848536    -0.918762    -2.646499
C-C-0.8537    -2.409079    0.039943    -3.440056
C-CT--0.3868    -3.663404    0.674352    -2.884179
O-O--0.6323    -1.947113    0.359958    -4.499924
C-C-0.7903    0.451090    -0.142223    -2.817473
O-O--0.6136    0.205490    0.781681    -2.089454
N-N--0.5650    1.585184    -0.197655    -3.548732
C-CT--0.3231    2.477299    0.942427    -3.599181
N-N--0.7191    3.997412    1.070275    -0.425452
C-C-0.8539    3.587019    2.267163    -0.934086
C-CT--0.3903    4.328148    2.727659    -2.172145
O-O--0.6290    2.697134    2.905425    -0.447397
H-H1-0.1459    -0.403259    1.006147    0.000000
H-H1-0.1459    -0.364960    -0.516002    0.875939
H-H1-0.1459    -0.345658    -0.522086    -0.883346
H-H-0.3572    1.904244    0.070913    -0.879357
H-HC-0.0997    3.932135    1.221760    2.980082
H-HC-0.0997    5.280920    1.595925    1.907500
H-HC-0.0997    3.792711    2.540594    1.848395
H-HC-0.0347    5.374584    -0.643250    0.891407
H-HC-0.0347    3.984642    -1.403324    0.174983
H-HC-0.0243    4.961565    -2.324757    2.354635
H-HC-0.0243    4.250121    -0.975721    3.182259
H-HC-0.0171    1.985724    -1.764045    2.562723
H-HC-0.0171    2.895638    -2.948110    3.437249
H-HA-0.1313    3.410792    -4.066371    1.132512
H-HA-0.1359    1.472577    -4.341563    -0.094248
H-HC-0.0092    0.129229    -2.329218    1.778480
H-HC-0.0092    -0.651398    -3.513888    0.776530
H-HC-0.0318    -0.954721    -1.205406    -0.035230
H-HC-0.0318    0.755837    -0.998816    -0.206837
H-HC-0.0435    -0.803946    -3.144666    -1.709483
H-HC-0.0435    0.876104    -2.741810    -1.928927
H-HC-0.1066    -1.161633    -2.961212    -4.128679
H-HC-0.1066    0.558351    -2.676988    -4.259030
H-HC-0.1066    -0.587278    -1.568591    -5.023738
H-H-0.3529    -2.151983    -0.903953    -1.699708
H-HC-0.1047    -4.224472    1.116052    -3.693601
H-HC-0.1047    -3.376071    1.458991    -2.190705
H-HC-0.1047    -4.282716    -0.041451    -2.354594
H-H-0.3615    1.632082    -0.844768    -4.299969
H-H1-0.1469    3.374634    0.655659    -4.131604
H-H1-0.1469    2.743296    1.242168    -2.596172
H-H1-0.1469    2.020217    1.789581    -4.100339
H-H-0.3570    4.828120    0.684785    -0.816437
H-HC-0.1060    3.710173    3.434604    -2.706288
H-HC-0.1060    4.588171    1.902533    -2.825678
H-HC-0.1060    5.244771    3.226201    -1.873716

D * 9 10 * F
