--Link1-- 
%chk=CHI4_-50
%NoSave 
#SP HF/6-31G*  Geom=(ModRedundant)  

paramfit run
  
0    1 
C-CT--0.3208    0.000000    0.000000    0.000000
N-N--0.5622    1.448187    0.000000    0.000000
C-C-0.8053    2.123200    0.475920    1.072365
O-O--0.6151    1.590179    0.696732    2.124447
C-CX-0.0839    3.650505    0.594143    0.921539
C-CU--0.3230    4.198902    1.549248    1.986845
C-CU--0.0657    4.307751    -0.809116    1.023981
C-CU--0.0109    4.133566    -1.622781    2.319066
C-CU-0.0816    2.832729    -2.433298    2.484965
C-CM--0.2354    2.579342    -3.423586    1.372579
C-CM--0.2653    2.614020    -3.198282    0.069202
C-CU-0.1214    2.914720    -1.893941    -0.629389
C-CU--0.0354    4.337223    -1.799341    -1.209992
C-CU--0.0984    4.616479    -2.872199    -2.271079
C-CU-0.1300    5.946023    -2.783305    -3.064212
C-CU--0.3561    6.006867    -3.996249    -4.006822
N-N--0.7186    5.935782    -1.557569    -3.850976
C-C-0.8537    7.039006    -1.142726    -4.539351
C-CT--0.3868    7.007595    0.301835    -4.983267
O-O--0.6323    7.967126    -1.864345    -4.778100
C-C-0.7903    7.115141    -2.702054    -2.056598
O-O--0.6136    7.425012    -1.647159    -1.571722
N-N--0.5650    7.690640    -3.863157    -1.676306
C-CT--0.3231    8.824012    -3.854682    -0.774310
N-N--0.7191    3.997412    1.070275    -0.425452
C-C-0.8539    3.587019    2.267163    -0.934086
C-CT--0.3903    4.328148    2.727659    -2.172145
O-O--0.6290    2.697134    2.905425    -0.447397
H-H1-0.1459    -0.403259    1.006147    0.000000
H-H1-0.1459    -0.364960    -0.516002    0.875939
H-H1-0.1459    -0.345658    -0.522086    -0.883346
H-H-0.3572    1.904244    0.070913    -0.879357
H-HC-0.0997    3.932135    1.221760    2.980082
H-HC-0.0997    5.280920    1.595925    1.907500
H-HC-0.0997    3.792711    2.540594    1.848395
H-HC-0.0347    5.374584    -0.643250    0.891407
H-HC-0.0347    3.984642    -1.403324    0.174983
H-HC-0.0243    4.961565    -2.324757    2.354635
H-HC-0.0243    4.250121    -0.975721    3.182259
H-HC-0.0171    1.985724    -1.764045    2.562723
H-HC-0.0171    2.895638    -2.948110    3.437249
H-HA-0.1313    2.349016    -4.426225    1.694727
H-HA-0.1359    2.409572    -4.034271    -0.581247
H-HC-0.0092    2.769323    -1.061952    0.048932
H-HC-0.0092    2.193489    -1.758304    -1.434388
H-HC-0.0318    4.458663    -0.803221    -1.626370
H-HC-0.0318    5.057306    -1.875770    -0.405958
H-HC-0.0435    3.815868    -2.868519    -3.007654
H-HC-0.0435    4.594656    -3.844927    -1.793928
H-HC-0.1066    5.209955    -3.909149    -4.736155
H-HC-0.1066    5.851380    -4.923360    -3.464908
H-HC-0.1066    6.945872    -4.041987    -4.537780
H-H-0.3529    5.373545    -0.823246    -3.485775
H-HC-0.1047    7.697464    0.434710    -5.802709
H-HC-0.1047    7.327533    0.925581    -4.153986
H-HC-0.1047    6.013738    0.614898    -5.284302
H-H-0.3615    7.580125    -4.658769    -2.259487
H-H1-0.1469    9.056060    -4.875775    -0.501465
H-H1-0.1469    8.575844    -3.299192    0.118142
H-H1-0.1469    9.697665    -3.399520    -1.229626
H-H-0.3570    4.828120    0.684785    -0.816437
H-HC-0.1060    3.710173    3.434604    -2.706288
H-HC-0.1060    4.588171    1.902533    -2.825678
H-HC-0.1060    5.244771    3.226201    -1.873716

D * 9 10 * F
