--Link1-- 
%chk=CHI4_-10
%NoSave 
#SP HF/6-31G*  Geom=(ModRedundant)  

paramfit run
  
0    1 
C-CT--0.3208    0.000000    0.000000    0.000000
N-N--0.5622    1.448187    0.000000    0.000000
C-C-0.8053    2.123200    0.475920    1.072365
O-O--0.6151    1.590179    0.696732    2.124447
C-CX-0.0839    3.650505    0.594143    0.921539
C-CU--0.3230    4.198902    1.549248    1.986845
C-CU--0.0657    4.307751    -0.809116    1.023981
C-CU--0.0109    4.133566    -1.622781    2.319066
C-CU-0.0816    2.832729    -2.433298    2.484965
C-CM--0.2354    2.579342    -3.423586    1.372579
C-CM--0.2653    3.230089    -3.531566    0.225572
C-CU-0.1214    4.387483    -2.690051    -0.256138
C-CU--0.0354    5.761616    -3.372917    -0.133593
C-CU--0.0984    5.858427    -4.661835    -0.960777
C-CU-0.1300    7.241298    -5.354951    -1.069881
C-CU--0.3561    7.052953    -6.641355    -1.890332
N-N--0.7186    8.153831    -4.461845    -1.770721
C-C-0.8537    9.483385    -4.748083    -1.886522
C-CT--0.3868    10.354206    -3.580195    -2.289650
O-O--0.6323    9.934067    -5.841527    -1.685505
C-C-0.7903    7.789689    -5.585400    0.356613
O-O--0.6136    8.365229    -4.702919    0.934463
N-N--0.5650    7.505666    -6.765218    0.949354
C-CT--0.3231    8.031572    -7.066046    2.265077
N-N--0.7191    3.997412    1.070275    -0.425452
C-C-0.8539    3.587019    2.267163    -0.934086
C-CT--0.3903    4.328148    2.727659    -2.172145
O-O--0.6290    2.697134    2.905425    -0.447397
H-H1-0.1459    -0.403259    1.006147    0.000000
H-H1-0.1459    -0.364960    -0.516002    0.875939
H-H1-0.1459    -0.345658    -0.522086    -0.883346
H-H-0.3572    1.904244    0.070913    -0.879357
H-HC-0.0997    3.932135    1.221760    2.980082
H-HC-0.0997    5.280920    1.595925    1.907500
H-HC-0.0997    3.792711    2.540594    1.848395
H-HC-0.0347    5.374584    -0.643250    0.891407
H-HC-0.0347    3.984642    -1.403324    0.174983
H-HC-0.0243    4.961565    -2.324757    2.354635
H-HC-0.0243    4.250121    -0.975721    3.182259
H-HC-0.0171    1.985724    -1.764045    2.562723
H-HC-0.0171    2.895638    -2.948110    3.437249
H-HA-0.1313    1.774615    -4.118247    1.551394
H-HA-0.1359    2.910221    -4.308081    -0.451532
H-HC-0.0092    4.424117    -1.754266    0.288315
H-HC-0.0092    4.213857    -2.427394    -1.298951
H-HC-0.0318    6.515944    -2.655970    -0.445604
H-HC-0.0318    5.964281    -3.583964    0.908144
H-HC-0.0435    5.530765    -4.462896    -1.978910
H-HC-0.0435    5.168888    -5.389683    -0.549530
H-HC-0.1066    6.766936    -6.370184    -2.899907
H-HC-0.1066    6.257490    -7.255551    -1.481208
H-HC-0.1066    7.964008    -7.218471    -1.941870
H-H-0.3529    7.942551    -3.493242    -1.694029
H-HC-0.1047    11.275122    -3.954700    -2.710032
H-HC-0.1047    10.587205    -2.999820    -1.401955
H-HC-0.1047    9.860697    -2.930521    -3.004321
H-H-0.3615    7.252124    -7.533937    0.374813
H-H1-0.1469    7.594228    -7.994530    2.607958
H-H1-0.1469    7.766785    -6.276603    2.953040
H-H1-0.1469    9.112409    -7.163149    2.254214
H-H-0.3570    4.828120    0.684785    -0.816437
H-HC-0.1060    3.710173    3.434604    -2.706288
H-HC-0.1060    4.588171    1.902533    -2.825678
H-HC-0.1060    5.244771    3.226201    -1.873716

D * 9 10 * F
