--Link1-- 
%chk=CHI4_-20
%NoSave 
#SP HF/6-31G*  Geom=(ModRedundant)  

paramfit run
  
0    1 
C-CT--0.3208    0.000000    0.000000    0.000000
N-N--0.5622    1.448187    0.000000    0.000000
C-C-0.8053    2.123200    0.475920    1.072365
O-O--0.6151    1.590179    0.696732    2.124447
C-CX-0.0839    3.650505    0.594143    0.921539
C-CU--0.3230    4.198902    1.549248    1.986845
C-CU--0.0657    4.307751    -0.809116    1.023981
C-CU--0.0109    4.133566    -1.622781    2.319066
C-CU-0.0816    2.832729    -2.433298    2.484965
C-CM--0.2354    2.579342    -3.423586    1.372579
C-CM--0.2653    3.101393    -3.421342    0.156761
C-CU-0.1214    4.079771    -2.426700    -0.420491
C-CU--0.0354    5.533966    -2.928325    -0.477530
C-CU--0.0984    5.696290    -4.175509    -1.356790
C-CU-0.1300    7.133585    -4.681115    -1.645219
C-CU--0.3561    7.015425    -5.962891    -2.485779
N-N--0.7186    7.838851    -3.662272    -2.410783
C-C-0.8537    9.171497    -3.771286    -2.685060
C-CT--0.3868    9.835440    -2.491932    -3.140294
O-O--0.6323    9.776768    -4.801259    -2.575760
C-C-0.7903    7.868010    -4.869620    -0.298442
O-O--0.6136    8.390550    -3.932827    0.243130
N-N--0.5650    7.805647    -6.088924    0.278959
C-CT--0.3231    8.513984    -6.347696    1.515687
N-N--0.7191    3.997412    1.070275    -0.425452
C-C-0.8539    3.587019    2.267163    -0.934086
C-CT--0.3903    4.328148    2.727659    -2.172145
O-O--0.6290    2.697134    2.905425    -0.447397
H-H1-0.1459    -0.403259    1.006147    0.000000
H-H1-0.1459    -0.364960    -0.516002    0.875939
H-H1-0.1459    -0.345658    -0.522086    -0.883346
H-H-0.3572    1.904244    0.070913    -0.879357
H-HC-0.0997    3.932135    1.221760    2.980082
H-HC-0.0997    5.280920    1.595925    1.907500
H-HC-0.0997    3.792711    2.540594    1.848395
H-HC-0.0347    5.374584    -0.643250    0.891407
H-HC-0.0347    3.984642    -1.403324    0.174983
H-HC-0.0243    4.961565    -2.324757    2.354635
H-HC-0.0243    4.250121    -0.975721    3.182259
H-HC-0.0171    1.985724    -1.764045    2.562723
H-HC-0.0171    2.895638    -2.948110    3.437249
H-HA-0.1313    1.894847    -4.220363    1.614915
H-HA-0.1359    2.805895    -4.217806    -0.508134
H-HC-0.0092    4.060771    -1.506142    0.150192
H-HC-0.0092    3.754906    -2.166084    -1.427037
H-HC-0.0318    6.150583    -2.113081    -0.845680
H-HC-0.0318    5.880804    -3.133994    0.526579
H-HC-0.0435    5.230559    -3.998549    -2.323906
H-HC-0.0435    5.156363    -4.995330    -0.897745
H-HC-0.1066    6.582599    -5.709117    -3.446425
H-HC-0.1066    6.356551    -6.683720    -2.012839
H-HC-0.1066    7.979892    -6.415873    -2.659993
H-H-0.3529    7.517335    -2.731101    -2.275658
H-HC-0.1047    10.741378    -2.734743    -3.674504
H-HC-0.1047    10.094470    -1.905750    -2.263699
H-HC-0.1047    9.184543    -1.896239    -3.771060
H-H-0.3615    7.586377    -6.871303    -0.291228
H-H1-0.1469    8.239937    -7.332258    1.871293
H-H1-0.1469    8.233086    -5.614384    2.257290
H-H1-0.1469    9.589859    -6.303718    1.380359
H-H-0.3570    4.828120    0.684785    -0.816437
H-HC-0.1060    3.710173    3.434604    -2.706288
H-HC-0.1060    4.588171    1.902533    -2.825678
H-HC-0.1060    5.244771    3.226201    -1.873716

D * 9 10 * F
