--Link1-- 
%chk=CHI4_-170
%NoSave 
#SP HF/6-31G*  Geom=(ModRedundant)  

paramfit run
  
0    1 
C-CT--0.3208    0.000000    0.000000    0.000000
N-N--0.5622    1.448187    0.000000    0.000000
C-C-0.8053    2.123200    0.475920    1.072365
O-O--0.6151    1.590179    0.696732    2.124447
C-CX-0.0839    3.650505    0.594143    0.921539
C-CU--0.3230    4.198902    1.549248    1.986845
C-CU--0.0657    4.307751    -0.809116    1.023981
C-CU--0.0109    4.133566    -1.622781    2.319066
C-CU-0.0816    2.832729    -2.433298    2.484965
C-CM--0.2354    2.579342    -3.423586    1.372579
C-CM--0.2653    1.475590    -4.117516    1.146859
C-CU-0.1214    0.195294    -4.091962    1.946823
C-CU--0.0354    -0.937813    -3.272615    1.303158
C-CU--0.0984    -1.357386    -3.817651    -0.068632
C-CU-0.1300    -2.605259    -3.196740    -0.748284
C-CU--0.3561    -2.769409    -3.868751    -2.121203
N-N--0.7186    -3.772434    -3.483136    0.074644
C-C-0.8537    -4.991917    -2.936129    -0.202306
C-CT--0.3868    -5.994708    -3.009466    0.926338
O-O--0.6323    -5.255423    -2.433697    -1.259315
C-C-0.7903    -2.420227    -1.663512    -0.809114
O-O--0.6136    -2.695717    -0.981722    0.141252
N-N--0.5650    -1.848433    -1.149344    -1.919369
C-CT--0.3231    -1.692154    0.283549    -2.062875
N-N--0.7191    3.997412    1.070275    -0.425452
C-C-0.8539    3.587019    2.267163    -0.934086
C-CT--0.3903    4.328148    2.727659    -2.172145
O-O--0.6290    2.697134    2.905425    -0.447397
H-H1-0.1459    -0.403259    1.006147    0.000000
H-H1-0.1459    -0.364960    -0.516002    0.875939
H-H1-0.1459    -0.345658    -0.522086    -0.883346
H-H-0.3572    1.904244    0.070913    -0.879357
H-HC-0.0997    3.932135    1.221760    2.980082
H-HC-0.0997    5.280920    1.595925    1.907500
H-HC-0.0997    3.792711    2.540594    1.848395
H-HC-0.0347    5.374584    -0.643250    0.891407
H-HC-0.0347    3.984642    -1.403324    0.174983
H-HC-0.0243    4.961565    -2.324757    2.354635
H-HC-0.0243    4.250121    -0.975721    3.182259
H-HC-0.0171    1.985724    -1.764045    2.562723
H-HC-0.0171    2.895638    -2.948110    3.437249
H-HA-0.1313    3.401350    -3.566918    0.690031
H-HA-0.1359    1.474662    -4.778880    0.294593
H-HC-0.0092    0.379259    -3.695830    2.938137
H-HC-0.0092    -0.144763    -5.117106    2.088370
H-HC-0.0318    -1.777841    -3.272152    1.992163
H-HC-0.0318    -0.625949    -2.240393    1.213216
H-HC-0.0435    -1.547198    -4.885978    0.010003
H-HC-0.0435    -0.528263    -3.699609    -0.756361
H-HC-0.1066    -2.994900    -4.917860    -1.969201
H-HC-0.1066    -1.851899    -3.813911    -2.697873
H-HC-0.1066    -3.577444    -3.429010    -2.686400
H-H-0.3529    -3.587225    -3.616892    1.042383
H-HC-0.1047    -6.990339    -2.910824    0.521307
H-HC-0.1047    -5.811662    -2.182589    1.605965
H-HC-0.1047    -5.914382    -3.936107    1.484250
H-H-0.3615    -1.860805    -1.690550    -2.751386
H-H1-0.1469    -1.110219    0.480116    -2.953737
H-H1-0.1469    -1.169195    0.681162    -1.205528
H-H1-0.1469    -2.650121    0.787013    -2.143972
H-H-0.3570    4.828120    0.684785    -0.816437
H-HC-0.1060    3.710173    3.434604    -2.706288
H-HC-0.1060    4.588171    1.902533    -2.825678
H-HC-0.1060    5.244771    3.226201    -1.873716

D * 9 10 * F
