--Link1-- 
%chk=CHI4_140
%NoSave 
#SP HF/6-31G*  Geom=(ModRedundant)  

paramfit run
  
0    1 
C-CT--0.3208    0.000000    0.000000    0.000000
N-N--0.5622    1.448187    0.000000    0.000000
C-C-0.8053    2.123200    0.475920    1.072365
O-O--0.6151    1.590179    0.696732    2.124447
C-CX-0.0839    3.650505    0.594143    0.921539
C-CU--0.3230    4.198902    1.549248    1.986845
C-CU--0.0657    4.307751    -0.809116    1.023981
C-CU--0.0109    4.133566    -1.622781    2.319066
C-CU-0.0816    2.832729    -2.433298    2.484965
C-CM--0.2354    2.579342    -3.423586    1.372579
C-CM--0.2653    2.099632    -4.651993    1.480522
C-CU-0.1214    1.687385    -5.368947    2.743766
C-CU--0.0354    0.166058    -5.428434    2.970903
C-CU--0.0984    -0.571186    -6.175838    1.851630
C-CU-0.1300    -2.082959    -6.464158    2.041523
C-CU--0.3561    -2.587435    -7.158614    0.766108
N-N--0.7186    -2.245104    -7.360253    3.178297
C-C-0.8537    -3.479578    -7.672603    3.669793
C-CT--0.3868    -3.479216    -8.286436    5.051102
O-O--0.6323    -4.492678    -7.477941    3.057522
C-C-0.7903    -2.800007    -5.134317    2.367238
O-O--0.6136    -2.818501    -4.715885    3.493516
N-N--0.5650    -3.303035    -4.428686    1.331367
C-CT--0.3231    -4.031364    -3.199719    1.570906
N-N--0.7191    3.997412    1.070275    -0.425452
C-C-0.8539    3.587019    2.267163    -0.934086
C-CT--0.3903    4.328148    2.727659    -2.172145
O-O--0.6290    2.697134    2.905425    -0.447397
H-H1-0.1459    -0.403259    1.006147    0.000000
H-H1-0.1459    -0.364960    -0.516002    0.875939
H-H1-0.1459    -0.345658    -0.522086    -0.883346
H-H-0.3572    1.904244    0.070913    -0.879357
H-HC-0.0997    3.932135    1.221760    2.980082
H-HC-0.0997    5.280920    1.595925    1.907500
H-HC-0.0997    3.792711    2.540594    1.848395
H-HC-0.0347    5.374584    -0.643250    0.891407
H-HC-0.0347    3.984642    -1.403324    0.174983
H-HC-0.0243    4.961565    -2.324757    2.354635
H-HC-0.0243    4.250121    -0.975721    3.182259
H-HC-0.0171    1.985724    -1.764045    2.562723
H-HC-0.0171    2.895638    -2.948110    3.437249
H-HA-0.1313    2.818348    -3.071758    0.382020
H-HA-0.1359    1.980539    -5.216622    0.569056
H-HC-0.0092    2.141118    -4.898977    3.607895
H-HC-0.0092    2.080685    -6.384197    2.709455
H-HC-0.0318    -0.006210    -5.904614    3.932126
H-HC-0.0318    -0.221171    -4.422291    3.063422
H-HC-0.0435    -0.091506    -7.137590    1.682886
H-HC-0.0435    -0.467530    -5.611818    0.932126
H-HC-0.1066    -2.101054    -8.123366    0.680857
H-HC-0.1066    -2.332241    -6.586715    -0.120001
H-HC-0.1066    -3.654466    -7.320800    0.795765
H-H-0.3529    -1.525360    -7.312506    3.862694
H-HC-0.1047    -4.402221    -8.826378    5.198020
H-HC-0.1047    -3.422395    -7.487718    5.784550
H-HC-0.1047    -2.635723    -8.951329    5.202156
H-H-0.3615    -3.481596    -4.903651    0.478234
H-H1-0.1469    -4.241254    -2.731231    0.618337
H-H1-0.1469    -3.430280    -2.529928    2.168154
H-H1-0.1469    -4.965272    -3.380356    2.093342
H-H-0.3570    4.828120    0.684785    -0.816437
H-HC-0.1060    3.710173    3.434604    -2.706288
H-HC-0.1060    4.588171    1.902533    -2.825678
H-HC-0.1060    5.244771    3.226201    -1.873716

D * 9 10 * F
