--Link1-- 
%chk=CHI4_-110
%NoSave 
#SP HF/6-31G*  Geom=(ModRedundant)  

paramfit run
  
0    1 
C-CT--0.3208    0.000000    0.000000    0.000000
N-N--0.5622    1.448187    0.000000    0.000000
C-C-0.8053    2.123200    0.475920    1.072365
O-O--0.6151    1.590179    0.696732    2.124447
C-CX-0.0839    3.650505    0.594143    0.921539
C-CU--0.3230    4.198902    1.549248    1.986845
C-CU--0.0657    4.307751    -0.809116    1.023981
C-CU--0.0109    4.133566    -1.622781    2.319066
C-CU-0.0816    2.832729    -2.433298    2.484965
C-CM--0.2354    2.579342    -3.423586    1.372579
C-CM--0.2653    1.645489    -3.363736    0.437115
C-CU-0.1214    0.600303    -2.290176    0.250548
C-CU--0.0354    0.910987    -1.293036    -0.880272
C-CU--0.0984    1.011816    -1.968484    -2.254505
C-CU-0.1300    1.144262    -1.060232    -3.504378
C-CU--0.3561    1.289017    -1.975720    -4.730909
N-N--0.7186    -0.070464    -0.266706    -3.632006
C-C-0.8537    -0.178354    0.727853    -4.560591
C-CT--0.3868    -1.315672    1.696082    -4.328545
O-O--0.6323    0.568975    0.831932    -5.493226
C-C-0.7903    2.332150    -0.095548    -3.287506
O-O--0.6136    2.181948    0.919757    -2.662587
N-N--0.5650    3.543945    -0.490398    -3.734302
C-CT--0.3231    4.689383    0.387355    -3.608919
N-N--0.7191    3.997412    1.070275    -0.425452
C-C-0.8539    3.587019    2.267163    -0.934086
C-CT--0.3903    4.328148    2.727659    -2.172145
O-O--0.6290    2.697134    2.905425    -0.447397
H-H1-0.1459    -0.403259    1.006147    0.000000
H-H1-0.1459    -0.364960    -0.516002    0.875939
H-H1-0.1459    -0.345658    -0.522086    -0.883346
H-H-0.3572    1.904244    0.070913    -0.879357
H-HC-0.0997    3.932135    1.221760    2.980082
H-HC-0.0997    5.280920    1.595925    1.907500
H-HC-0.0997    3.792711    2.540594    1.848395
H-HC-0.0347    5.374584    -0.643250    0.891407
H-HC-0.0347    3.984642    -1.403324    0.174983
H-HC-0.0243    4.961565    -2.324757    2.354635
H-HC-0.0243    4.250121    -0.975721    3.182259
H-HC-0.0171    1.985724    -1.764045    2.562723
H-HC-0.0171    2.895638    -2.948110    3.437249
H-HA-0.1313    3.247954    -4.268901    1.349904
H-HA-0.1359    1.618109    -4.165445    -0.284186
H-HC-0.0092    0.467714    -1.730969    1.168794
H-HC-0.0092    -0.356189    -2.770121    0.047154
H-HC-0.0318    0.130886    -0.536854    -0.877688
H-HC-0.0318    1.831780    -0.771654    -0.654152
H-HC-0.0435    0.134477    -2.591167    -2.415990
H-HC-0.0435    1.867748    -2.633105    -2.251584
H-HC-0.1066    0.369529    -2.535513    -4.856432
H-HC-0.1066    2.090420    -2.694091    -4.592790
H-HC-0.1066    1.464174    -1.409026    -5.633083
H-H-0.3529    -0.557514    -0.096125    -2.782067
H-HC-0.1047    -1.554248    2.190175    -5.258069
H-HC-0.1047    -0.992684    2.443245    -3.609831
H-HC-0.1047    -2.198486    1.202554    -3.936816
H-H-0.3615    3.583665    -1.191716    -4.435648
H-H1-0.1469    5.575407    -0.155624    -3.910676
H-H1-0.1469    4.799864    0.698297    -2.580456
H-H1-0.1469    4.586680    1.274116    -4.226059
H-H-0.3570    4.828120    0.684785    -0.816437
H-HC-0.1060    3.710173    3.434604    -2.706288
H-HC-0.1060    4.588171    1.902533    -2.825678
H-HC-0.1060    5.244771    3.226201    -1.873716

D * 9 10 * F
