--Link1-- 
%chk=CHI4_-90
%NoSave 
#SP HF/6-31G*  Geom=(ModRedundant)  

paramfit run
  
0    1 
C-CT--0.3208    0.000000    0.000000    0.000000
N-N--0.5622    1.448187    0.000000    0.000000
C-C-0.8053    2.123200    0.475920    1.072365
O-O--0.6151    1.590179    0.696732    2.124447
C-CX-0.0839    3.650505    0.594143    0.921539
C-CU--0.3230    4.198902    1.549248    1.986845
C-CU--0.0657    4.307751    -0.809116    1.023981
C-CU--0.0109    4.133566    -1.622781    2.319066
C-CU-0.0816    2.832729    -2.433298    2.484965
C-CM--0.2354    2.579342    -3.423586    1.372579
C-CM--0.2653    1.918453    -3.217700    0.244930
C-CU-0.1214    1.252447    -1.940908    -0.208934
C-CU--0.0354    2.047755    -1.152033    -1.264740
C-CU--0.0984    2.265955    -1.947809    -2.558588
C-CU-0.1300    2.896303    -1.211354    -3.768936
C-CU--0.3561    3.061796    -2.236913    -4.902202
N-N--0.7186    1.985538    -0.158296    -4.196848
C-C-0.8537    2.342304    0.748213    -5.152890
C-CT--0.3868    1.471607    1.982087    -5.218064
O-O--0.6323    3.274880    0.584813    -5.889601
C-C-0.7903    4.216902    -0.552376    -3.310143
O-O--0.6136    4.202479    0.518879    -2.765961
N-N--0.5650    5.352458    -1.269424    -3.452740
C-CT--0.3231    6.630458    -0.691889    -3.090286
N-N--0.7191    3.997412    1.070275    -0.425452
C-C-0.8539    3.587019    2.267163    -0.934086
C-CT--0.3903    4.328148    2.727659    -2.172145
O-O--0.6290    2.697134    2.905425    -0.447397
H-H1-0.1459    -0.403259    1.006147    0.000000
H-H1-0.1459    -0.364960    -0.516002    0.875939
H-H1-0.1459    -0.345658    -0.522086    -0.883346
H-H-0.3572    1.904244    0.070913    -0.879357
H-HC-0.0997    3.932135    1.221760    2.980082
H-HC-0.0997    5.280920    1.595925    1.907500
H-HC-0.0997    3.792711    2.540594    1.848395
H-HC-0.0347    5.374584    -0.643250    0.891407
H-HC-0.0347    3.984642    -1.403324    0.174983
H-HC-0.0243    4.961565    -2.324757    2.354635
H-HC-0.0243    4.250121    -0.975721    3.182259
H-HC-0.0171    1.985724    -1.764045    2.562723
H-HC-0.0171    2.895638    -2.948110    3.437249
H-HA-0.1313    2.995193    -4.405738    1.529297
H-HA-0.1359    1.841802    -4.047494    -0.440144
H-HC-0.0092    1.073139    -1.289018    0.637444
H-HC-0.0092    0.272050    -2.187394    -0.614716
H-HC-0.0318    1.508267    -0.230348    -1.464301
H-HC-0.0318    3.000330    -0.854815    -0.846299
H-HC-0.0435    1.314095    -2.347909    -2.901249
H-HC-0.0435    2.899303    -2.799200    -2.338695
H-HC-0.1066    2.078718    -2.562841    -5.221434
H-HC-0.1066    3.600614    -3.115144    -4.561955
H-HC-0.1066    3.568705    -1.810675    -5.754905
H-H-0.3529    1.386902    0.199344    -3.488018
H-HC-0.1047    1.576196    2.437307    -6.191151
H-HC-0.1047    1.813003    2.686503    -4.465488
H-HC-0.1047    0.428067    1.755881    -5.027705
H-H-0.3615    5.360597    -2.017009    -4.105703
H-H1-0.1469    7.389612    -1.459547    -3.163126
H-H1-0.1469    6.591913    -0.329797    -2.073414
H-H1-0.1469    6.896739    0.136190    -3.739235
H-H-0.3570    4.828120    0.684785    -0.816437
H-HC-0.1060    3.710173    3.434604    -2.706288
H-HC-0.1060    4.588171    1.902533    -2.825678
H-HC-0.1060    5.244771    3.226201    -1.873716

D * 9 10 * F
