--Link1-- 
%chk=CHI4_0
%NoSave 
#SP HF/6-31G*  Geom=(ModRedundant)  

paramfit run
  
0    1 
C-CT--0.3208    0.000000    0.000000    0.000000
N-N--0.5622    1.448187    0.000000    0.000000
C-C-0.8053    2.123200    0.475920    1.072365
O-O--0.6151    1.590179    0.696732    2.124447
C-CX-0.0839    3.650505    0.594143    0.921539
C-CU--0.3230    4.198902    1.549248    1.986845
C-CU--0.0657    4.307751    -0.809116    1.023981
C-CU--0.0109    4.133566    -1.622781    2.319066
C-CU-0.0816    2.832729    -2.433298    2.484965
C-CM--0.2354    2.579342    -3.423586    1.372579
C-CM--0.2653    3.334903    -3.654567    0.311197
C-CU-0.1214    4.638140    -2.983959    -0.051586
C-CU--0.0354    5.889812    -3.829845    0.243980
C-CU--0.0984    5.910841    -5.149969    -0.538160
C-CU-0.1300    7.195727    -6.015564    -0.471397
C-CU--0.3561    6.935383    -7.296968    -1.279900
N-N--0.7186    8.288933    -5.270902    -1.081242
C-C-0.8537    9.574744    -5.726661    -1.036165
C-CT--0.3868    10.629117    -4.693479    -1.361183
O-O--0.6323    9.854631    -6.860174    -0.760571
C-C-0.7903    7.546473    -6.261212    1.013648
O-O--0.6136    8.163134    -5.437938    1.634840
N-N--0.5650    7.047461    -7.373356    1.595115
C-CT--0.3231    7.379338    -7.689974    2.969092
N-N--0.7191    3.997412    1.070275    -0.425452
C-C-0.8539    3.587019    2.267163    -0.934086
C-CT--0.3903    4.328148    2.727659    -2.172145
O-O--0.6290    2.697134    2.905425    -0.447397
H-H1-0.1459    -0.403259    1.006147    0.000000
H-H1-0.1459    -0.364960    -0.516002    0.875939
H-H1-0.1459    -0.345658    -0.522086    -0.883346
H-H-0.3572    1.904244    0.070913    -0.879357
H-HC-0.0997    3.932135    1.221760    2.980082
H-HC-0.0997    5.280920    1.595925    1.907500
H-HC-0.0997    3.792711    2.540594    1.848395
H-HC-0.0347    5.374584    -0.643250    0.891407
H-HC-0.0347    3.984642    -1.403324    0.174983
H-HC-0.0243    4.961565    -2.324757    2.354635
H-HC-0.0243    4.250121    -0.975721    3.182259
H-HC-0.0171    1.985724    -1.764045    2.562723
H-HC-0.0171    2.895638    -2.948110    3.437249
H-HA-0.1313    1.676497    -4.004159    1.472179
H-HA-0.1359    2.994977    -4.408676    -0.381285
H-HC-0.0092    4.734495    -2.041055    0.472926
H-HC-0.0092    4.617844    -2.739687    -1.112960
H-HC-0.0318    6.760800    -3.225675    0.005794
H-HC-0.0318    5.945523    -4.026658    1.306520
H-HC-0.0435    5.727767    -4.948525    -1.591459
H-HC-0.0435    5.091163    -5.769503    -0.193695
H-HC-0.1066    6.801738    -7.028860    -2.321456
H-HC-0.1066    6.026305    -7.790546    -0.952274
H-HC-0.1066    7.764001    -7.985930    -1.213090
H-H-0.3529    8.197652    -4.281234    -1.050637
H-HC-0.1047    11.534988    -5.196278    -1.663926
H-HC-0.1047    10.834475    -4.115172    -0.465351
H-HC-0.1047    10.307057    -4.013213    -2.142142
H-H-0.3615    6.762409    -8.124367    1.011987
H-H1-0.1469    6.789796    -8.542723    3.279219
H-H1-0.1469    7.143700    -6.848875    3.604430
H-H1-0.1469    8.432854    -7.923024    3.085478
H-H-0.3570    4.828120    0.684785    -0.816437
H-HC-0.1060    3.710173    3.434604    -2.706288
H-HC-0.1060    4.588171    1.902533    -2.825678
H-HC-0.1060    5.244771    3.226201    -1.873716

D * 9 10 * F
