--Link1-- 
%chk=CHI4_-30
%NoSave 
#SP HF/6-31G*  Geom=(ModRedundant)  

paramfit run
  
0    1 
C-CT--0.3208    0.000000    0.000000    0.000000
N-N--0.5622    1.448187    0.000000    0.000000
C-C-0.8053    2.123200    0.475920    1.072365
O-O--0.6151    1.590179    0.696732    2.124447
C-CX-0.0839    3.650505    0.594143    0.921539
C-CU--0.3230    4.198902    1.549248    1.986845
C-CU--0.0657    4.307751    -0.809116    1.023981
C-CU--0.0109    4.133566    -1.622781    2.319066
C-CU-0.0816    2.832729    -2.433298    2.484965
C-CM--0.2354    2.579342    -3.423586    1.372579
C-CM--0.2653    2.952727    -3.327243    0.106855
C-CU-0.1214    3.724354    -2.201908    -0.539650
C-CU--0.0354    5.213779    -2.509579    -0.777380
C-CU--0.0984    5.429356    -3.705769    -1.714166
C-CU-0.1300    6.875860    -4.014533    -2.179931
C-CU--0.3561    6.823939    -5.282191    -3.048147
N-N--0.7186    7.353566    -2.896479    -2.981980
C-C-0.8537    8.648557    -2.825950    -3.407515
C-CT--0.3868    9.088580    -1.461758    -3.887270
O-O--0.6323    9.387511    -3.770979    -3.404287
C-C-0.7903    7.779058    -4.135622    -0.931613
O-O--0.6136    8.238329    -3.151062    -0.418153
N-N--0.5650    7.938288    -5.365022    -0.395700
C-CT--0.3231    8.811917    -5.556751    0.743692
N-N--0.7191    3.997412    1.070275    -0.425452
C-C-0.8539    3.587019    2.267163    -0.934086
C-CT--0.3903    4.328148    2.727659    -2.172145
O-O--0.6290    2.697134    2.905425    -0.447397
H-H1-0.1459    -0.403259    1.006147    0.000000
H-H1-0.1459    -0.364960    -0.516002    0.875939
H-H1-0.1459    -0.345658    -0.522086    -0.883346
H-H-0.3572    1.904244    0.070913    -0.879357
H-HC-0.0997    3.932135    1.221760    2.980082
H-HC-0.0997    5.280920    1.595925    1.907500
H-HC-0.0997    3.792711    2.540594    1.848395
H-HC-0.0347    5.374584    -0.643250    0.891407
H-HC-0.0347    3.984642    -1.403324    0.174983
H-HC-0.0243    4.961565    -2.324757    2.354635
H-HC-0.0243    4.250121    -0.975721    3.182259
H-HC-0.0171    1.985724    -1.764045    2.562723
H-HC-0.0171    2.895638    -2.948110    3.437249
H-HA-0.1313    2.033539    -4.307405    1.660810
H-HA-0.1359    2.685168    -4.140594    -0.549372
H-HC-0.0092    3.655497    -1.304224    0.062752
H-HC-0.0092    3.254936    -1.963695    -1.493324
H-HC-0.0318    5.675818    -1.613503    -1.182278
H-HC-0.0318    5.697629    -2.690421    0.173418
H-HC-0.0435    4.836272    -3.569593    -2.615965
H-HC-0.0435    5.053969    -4.598429    -1.227758
H-HC-0.1066    6.254329    -5.065745    -3.944404
H-HC-0.1066    6.320476    -6.092426    -2.531014
H-HC-0.1066    7.811171    -5.602521    -3.345637
H-H-0.3529    6.934925    -2.017966    -2.777851
H-HC-0.1047    9.949973    -1.573476    -4.528037
H-HC-0.1047    9.371240    -0.866206    -3.024399
H-HC-0.1047    8.299141    -0.941792    -4.419061
H-H-0.3615    7.755013    -6.156600    -0.965897
H-H1-0.1469    8.707304    -6.576030    1.091610
H-H1-0.1469    8.528434    -4.882340    1.538320
H-H1-0.1469    9.850698    -5.370844    0.490463
H-H-0.3570    4.828120    0.684785    -0.816437
H-HC-0.1060    3.710173    3.434604    -2.706288
H-HC-0.1060    4.588171    1.902533    -2.825678
H-HC-0.1060    5.244771    3.226201    -1.873716

D * 9 10 * F
