--Link1-- 
%chk=CHI4_-180
%NoSave 
#SP HF/6-31G*  Geom=(ModRedundant)  

paramfit run
  
0    1 
C-CT--0.3208    0.000000    0.000000    0.000000
N-N--0.5622    1.448187    0.000000    0.000000
C-C-0.8053    2.123200    0.475920    1.072365
O-O--0.6151    1.590179    0.696732    2.124447
C-CX-0.0839    3.650505    0.594143    0.921539
C-CU--0.3230    4.198902    1.549248    1.986845
C-CU--0.0657    4.307751    -0.809116    1.023981
C-CU--0.0109    4.133566    -1.622781    2.319066
C-CU-0.0816    2.832729    -2.433298    2.484965
C-CM--0.2354    2.579342    -3.423586    1.372579
C-CM--0.2653    1.553338    -4.249556    1.246696
C-CU-0.1214    0.381280    -4.407496    2.185359
C-CU--0.0354    -0.912966    -3.727995    1.702895
C-CU--0.0984    -1.416287    -4.292763    0.367747
C-CU-0.1300    -2.802728    -3.824060    -0.144839
C-CU--0.3561    -3.038504    -4.481592    -1.514332
N-N--0.7186    -3.821312    -4.277095    0.792591
C-C-0.8537    -5.123862    -3.886755    0.674033
C-CT--0.3868    -5.972004    -4.113946    1.904417
O-O--0.6323    -5.569180    -3.399773    -0.327807
C-C-0.7903    -2.820946    -2.278823    -0.170062
O-O--0.6136    -3.068444    -1.659336    0.829392
N-N--0.5650    -2.450939    -1.670849    -1.317862
C-CT--0.3231    -2.494391    -0.227000    -1.425625
N-N--0.7191    3.997412    1.070275    -0.425452
C-C-0.8539    3.587019    2.267163    -0.934086
C-CT--0.3903    4.328148    2.727659    -2.172145
O-O--0.6290    2.697134    2.905425    -0.447397
H-H1-0.1459    -0.403259    1.006147    0.000000
H-H1-0.1459    -0.364960    -0.516002    0.875939
H-H1-0.1459    -0.345658    -0.522086    -0.883346
H-H-0.3572    1.904244    0.070913    -0.879357
H-HC-0.0997    3.932135    1.221760    2.980082
H-HC-0.0997    5.280920    1.595925    1.907500
H-HC-0.0997    3.792711    2.540594    1.848395
H-HC-0.0347    5.374584    -0.643250    0.891407
H-HC-0.0347    3.984642    -1.403324    0.174983
H-HC-0.0243    4.961565    -2.324757    2.354635
H-HC-0.0243    4.250121    -0.975721    3.182259
H-HC-0.0171    1.985724    -1.764045    2.562723
H-HC-0.0171    2.895638    -2.948110    3.437249
H-HA-0.1313    3.328327    -3.444325    0.597528
H-HA-0.1359    1.537272    -4.886737    0.376350
H-HC-0.0092    0.627239    -4.012571    3.163625
H-HC-0.0092    0.191986    -5.470891    2.326617
H-HC-0.0318    -1.660929    -3.851362    2.481167
H-HC-0.0318    -0.746372    -2.662361    1.616298
H-HC-0.0435    -1.459384    -5.378134    0.428136
H-HC-0.0435    -0.693875    -4.053358    -0.403716
H-HC-0.1066    -3.110689    -5.554132    -1.376392
H-HC-0.1066    -2.208184    -4.295813    -2.187709
H-HC-0.1066    -3.955495    -4.138011    -1.969105
H-H-0.3529    -3.509988    -4.406791    1.727988
H-HC-0.1047    -7.012246    -4.136299    1.617262
H-HC-0.1047    -5.817370    -3.285334    2.588971
H-HC-0.1047    -5.711377    -5.034312    2.415672
H-H-0.3615    -2.491100    -2.190837    -2.162439
H-H1-0.1469    -2.048930    0.062657    -2.368272
H-H1-0.1469    -1.930130    0.216224    -0.618291
H-H1-0.1469    -3.511130    0.149781    -1.380557
H-H-0.3570    4.828120    0.684785    -0.816437
H-HC-0.1060    3.710173    3.434604    -2.706288
H-HC-0.1060    4.588171    1.902533    -2.825678
H-HC-0.1060    5.244771    3.226201    -1.873716

D * 9 10 * F
