--Link1-- 
%chk=CHI4_150
%NoSave 
#SP HF/6-31G*  Geom=(ModRedundant)  

paramfit run
  
0    1 
C-CT--0.3208    0.000000    0.000000    0.000000
N-N--0.5622    1.448187    0.000000    0.000000
C-C-0.8053    2.123200    0.475920    1.072365
O-O--0.6151    1.590179    0.696732    2.124447
C-CX-0.0839    3.650505    0.594143    0.921539
C-CU--0.3230    4.198902    1.549248    1.986845
C-CU--0.0657    4.307751    -0.809116    1.023981
C-CU--0.0109    4.133566    -1.622781    2.319066
C-CU-0.0816    2.832729    -2.433298    2.484965
C-CM--0.2354    2.579342    -3.423586    1.372579
C-CM--0.2653    1.935512    -4.576879    1.451037
C-CU-0.1214    1.295061    -5.189544    2.673420
C-CU--0.0354    -0.236937    -5.048255    2.724250
C-CU--0.0984    -0.934805    -5.736956    1.543748
C-CU-0.1300    -2.482862    -5.825081    1.563686
C-CU--0.3561    -2.927060    -6.496359    0.253905
N-N--0.7186    -2.885950    -6.651507    2.693320
C-C-0.8537    -4.197680    -6.787450    3.045371
C-CT--0.3868    -4.431475    -7.345651    4.430491
O-O--0.6323    -5.102063    -6.488953    2.315896
C-C-0.7903    -3.053530    -4.404402    1.775189
O-O--0.6136    -3.143639    -3.946200    2.882375
N-N--0.5650    -3.341762    -3.679173    0.672943
C-CT--0.3231    -3.926962    -2.360212    0.799763
N-N--0.7191    3.997412    1.070275    -0.425452
C-C-0.8539    3.587019    2.267163    -0.934086
C-CT--0.3903    4.328148    2.727659    -2.172145
O-O--0.6290    2.697134    2.905425    -0.447397
H-H1-0.1459    -0.403259    1.006147    0.000000
H-H1-0.1459    -0.364960    -0.516002    0.875939
H-H1-0.1459    -0.345658    -0.522086    -0.883346
H-H-0.3572    1.904244    0.070913    -0.879357
H-HC-0.0997    3.932135    1.221760    2.980082
H-HC-0.0997    5.280920    1.595925    1.907500
H-HC-0.0997    3.792711    2.540594    1.848395
H-HC-0.0347    5.374584    -0.643250    0.891407
H-HC-0.0347    3.984642    -1.403324    0.174983
H-HC-0.0243    4.961565    -2.324757    2.354635
H-HC-0.0243    4.250121    -0.975721    3.182259
H-HC-0.0171    1.985724    -1.764045    2.562723
H-HC-0.0171    2.895638    -2.948110    3.437249
H-HA-0.1313    2.971287    -3.141081    0.408897
H-HA-0.1359    1.847079    -5.154818    0.544435
H-HC-0.0092    1.706231    -4.749398    3.573796
H-HC-0.0092    1.554888    -6.246879    2.706979
H-HC-0.0318    -0.575952    -5.463526    3.669233
H-HC-0.0318    -0.498479    -3.998592    2.749395
H-HC-0.0435    -0.567894    -6.757058    1.452638
H-HC-0.0435    -0.656681    -5.224427    0.630342
H-HC-0.1066    -2.563283    -7.517238    0.246548
H-HC-0.1066    -2.502354    -5.993925    -0.608977
H-HC-0.1066    -4.002665    -6.521408    0.163431
H-H-0.3529    -2.247267    -6.670047    3.455194
H-HC-0.1047    -5.427239    -7.759083    4.481359
H-HC-0.1047    -4.354142    -6.534283    5.148006
H-HC-0.1047    -3.703471    -8.105718    4.692580
H-H-0.3615    -3.483700    -4.158593    -0.184565
H-H1-0.1469    -3.966428    -1.904026    -0.180674
H-H1-0.1469    -3.314857    -1.750301    1.447808
H-H1-0.1469    -4.928967    -2.402385    1.214445
H-H-0.3570    4.828120    0.684785    -0.816437
H-HC-0.1060    3.710173    3.434604    -2.706288
H-HC-0.1060    4.588171    1.902533    -2.825678
H-HC-0.1060    5.244771    3.226201    -1.873716

D * 9 10 * F
