--Link1-- 
%chk=CHI4_20
%NoSave 
#SP HF/6-31G*  Geom=(ModRedundant)  

paramfit run
  
0    1 
C-CT--0.3208    0.000000    0.000000    0.000000
N-N--0.5622    1.448187    0.000000    0.000000
C-C-0.8053    2.123200    0.475920    1.072365
O-O--0.6151    1.590179    0.696732    2.124447
C-CX-0.0839    3.650505    0.594143    0.921539
C-CU--0.3230    4.198902    1.549248    1.986845
C-CU--0.0657    4.307751    -0.809116    1.023981
C-CU--0.0109    4.133566    -1.622781    2.319066
C-CU-0.0816    2.832729    -2.433298    2.484965
C-CM--0.2354    2.579342    -3.423586    1.372579
C-CM--0.2653    3.460970    -3.923675    0.522050
C-CU-0.1214    4.939788    -3.627068    0.452222
C-CU--0.0354    5.835399    -4.725222    1.053474
C-CU--0.0984    5.683511    -6.072733    0.335103
C-CU-0.1300    6.654889    -7.217849    0.722119
C-CU--0.3561    6.253842    -8.461256    -0.088160
N-N--0.7186    8.008676    -6.819598    0.361305
C-C-0.8537    9.091555    -7.571075    0.715867
C-CT--0.3868    10.421624    -6.860075    0.614869
O-O--0.6323    9.002325    -8.710401    1.080717
C-C-0.7903    6.599703    -7.412635    2.254352
O-O--0.6136    7.258369    -6.715171    2.977975
N-N--0.5650    5.716451    -8.313885    2.735596
C-CT--0.3231    5.649233    -8.582178    4.157462
N-N--0.7191    3.997412    1.070275    -0.425452
C-C-0.8539    3.587019    2.267163    -0.934086
C-CT--0.3903    4.328148    2.727659    -2.172145
O-O--0.6290    2.697134    2.905425    -0.447397
H-H1-0.1459    -0.403259    1.006147    0.000000
H-H1-0.1459    -0.364960    -0.516002    0.875939
H-H1-0.1459    -0.345658    -0.522086    -0.883346
H-H-0.3572    1.904244    0.070913    -0.879357
H-HC-0.0997    3.932135    1.221760    2.980082
H-HC-0.0997    5.280920    1.595925    1.907500
H-HC-0.0997    3.792711    2.540594    1.848395
H-HC-0.0347    5.374584    -0.643250    0.891407
H-HC-0.0347    3.984642    -1.403324    0.174983
H-HC-0.0243    4.961565    -2.324757    2.354635
H-HC-0.0243    4.250121    -0.975721    3.182259
H-HC-0.0171    1.985724    -1.764045    2.562723
H-HC-0.0171    2.895638    -2.948110    3.437249
H-HA-0.1313    1.557765    -3.754193    1.276695
H-HA-0.1359    3.096148    -4.628376    -0.208745
H-HC-0.0092    5.160520    -2.694864    0.957928
H-HC-0.0092    5.213870    -3.478002    -0.591451
H-HC-0.0318    6.863124    -4.376002    1.006552
H-HC-0.0318    5.606671    -4.837044    2.105144
H-HC-0.0435    5.791536    -5.924410    -0.737215
H-HC-0.0435    4.677083    -6.440180    0.497690
H-HC-0.1066    6.423083    -8.259667    -1.139492
H-HC-0.1066    5.199459    -8.686613    0.033784
H-HC-0.1066    6.841337    -9.323929    0.188218
H-H-0.3529    8.171911    -5.838939    0.341955
H-HC-0.1047    11.210061    -7.593887    0.544532
H-HC-0.1047    10.570249    -6.274547    1.517195
H-HC-0.1047    10.463539    -6.191767    -0.238355
H-H-0.3615    5.380385    -9.019593    2.123759
H-H1-0.1469    4.806615    -9.234220    4.346559
H-H1-0.1469    5.507096    -7.657288    4.696907
H-H1-0.1469    6.555539    -9.055480    4.521262
H-H-0.3570    4.828120    0.684785    -0.816437
H-HC-0.1060    3.710173    3.434604    -2.706288
H-HC-0.1060    4.588171    1.902533    -2.825678
H-HC-0.1060    5.244771    3.226201    -1.873716

D * 9 10 * F
