--Link1-- 
%chk=CHI4_10
%NoSave 
#SP HF/6-31G*  Geom=(ModRedundant)  

paramfit run
  
0    1 
C-CT--0.3208    0.000000    0.000000    0.000000
N-N--0.5622    1.448187    0.000000    0.000000
C-C-0.8053    2.123200    0.475920    1.072365
O-O--0.6151    1.590179    0.696732    2.124447
C-CX-0.0839    3.650505    0.594143    0.921539
C-CU--0.3230    4.198902    1.549248    1.986845
C-CU--0.0657    4.307751    -0.809116    1.023981
C-CU--0.0109    4.133566    -1.622781    2.319066
C-CU-0.0816    2.832729    -2.433298    2.484965
C-CM--0.2354    2.579342    -3.423586    1.372579
C-CM--0.2653    3.412651    -3.786607    0.411034
C-CU-0.1214    4.824125    -3.299494    0.186950
C-CU--0.0354    5.914658    -4.285225    0.643718
C-CU--0.0984    5.851939    -5.625081    -0.101780
C-CU-0.1300    6.998258    -6.642884    0.132048
C-CU--0.3561    6.666288    -7.909808    -0.673029
N-N--0.7186    8.240053    -6.064861    -0.363295
C-C-0.8537    9.442797    -6.677286    -0.159826
C-CT--0.3868    10.651820    -5.797959    -0.383104
O-O--0.6323    9.540872    -7.826250    0.170937
C-C-0.7903    7.145752    -6.876522    1.652700
O-O--0.6136    7.790405    -6.115552    2.322981
N-N--0.5650    6.444954    -7.894860    2.196621
C-CT--0.3231    6.577100    -8.200522    3.606341
N-N--0.7191    3.997412    1.070275    -0.425452
C-C-0.8539    3.587019    2.267163    -0.934086
C-CT--0.3903    4.328148    2.727659    -2.172145
O-O--0.6290    2.697134    2.905425    -0.447397
H-H1-0.1459    -0.403259    1.006147    0.000000
H-H1-0.1459    -0.364960    -0.516002    0.875939
H-H1-0.1459    -0.345658    -0.522086    -0.883346
H-H-0.3572    1.904244    0.070913    -0.879357
H-HC-0.0997    3.932135    1.221760    2.980082
H-HC-0.0997    5.280920    1.595925    1.907500
H-HC-0.0997    3.792711    2.540594    1.848395
H-HC-0.0347    5.374584    -0.643250    0.891407
H-HC-0.0347    3.984642    -1.403324    0.174983
H-HC-0.0243    4.961565    -2.324757    2.354635
H-HC-0.0243    4.250121    -0.975721    3.182259
H-HC-0.0171    1.985724    -1.764045    2.562723
H-HC-0.0171    2.895638    -2.948110    3.437249
H-HA-0.1313    1.603474    -3.881566    1.379675
H-HA-0.1359    3.057586    -4.516533    -0.299528
H-HC-0.0092    4.982474    -2.357795    0.698414
H-HC-0.0092    4.954593    -3.093472    -0.874713
H-HC-0.0318    6.877710    -3.804885    0.494799
H-HC-0.0318    5.825100    -4.448625    1.709603
H-HC-0.0435    5.815580    -5.440681    -1.173325
H-HC-0.0435    4.925551    -6.123252    0.158950
H-HC-0.1066    6.685948    -7.665132    -1.728647
H-HC-0.1066    5.670019    -8.272447    -0.442110
H-HC-0.1066    7.385948    -8.694930    -0.495796
H-H-0.3529    8.274888    -5.071133    -0.365032
H-HC-0.1047    11.513079    -6.421752    -0.567971
H-HC-0.1047    10.828765    -5.217916    0.517655
H-HC-0.1047    10.510060    -5.111418    -1.210720
H-H-0.3615    6.132112    -8.624652    1.600934
H-H1-0.1469    5.851085    -8.960181    3.864683
H-H1-0.1469    6.382764    -7.313813    4.191666
H-H1-0.1469    7.571844    -8.560255    3.848893
H-H-0.3570    4.828120    0.684785    -0.816437
H-HC-0.1060    3.710173    3.434604    -2.706288
H-HC-0.1060    4.588171    1.902533    -2.825678
H-HC-0.1060    5.244771    3.226201    -1.873716

D * 9 10 * F
