--Link1-- 
%chk=CHI4_110
%NoSave 
#SP HF/6-31G*  Geom=(ModRedundant)  

paramfit run
  
0    1 
C-CT--0.3208    0.000000    0.000000    0.000000
N-N--0.5622    1.448187    0.000000    0.000000
C-C-0.8053    2.123200    0.475920    1.072365
O-O--0.6151    1.590179    0.696732    2.124447
C-CX-0.0839    3.650505    0.594143    0.921539
C-CU--0.3230    4.198902    1.549248    1.986845
C-CU--0.0657    4.307751    -0.809116    1.023981
C-CU--0.0109    4.133566    -1.622781    2.319066
C-CU-0.0816    2.832729    -2.433298    2.484965
C-CM--0.2354    2.579342    -3.423586    1.372579
C-CM--0.2653    2.633418    -4.743884    1.440738
C-CU-0.1214    2.963179    -5.588156    2.648304
C-CU--0.0354    1.739166    -6.229965    3.326123
C-CU--0.0984    0.976707    -7.181061    2.393928
C-CU-0.1300    -0.170942    -8.029845    2.999825
C-CU--0.3561    -0.803413    -8.839916    1.856490
N-N--0.7186    0.396127    -8.941380    3.984238
C-C-0.8537    -0.397995    -9.711972    4.783373
C-CT--0.3868    0.294854    -10.305283    5.988673
O-O--0.6323    -1.558788    -9.908340    4.552853
C-C-0.7903    -1.152494    -7.082420    3.726232
O-O--0.6136    -0.928691    -6.724663    4.851332
N-N--0.5650    -2.196069    -6.603425    3.015250
C-CT--0.3231    -3.181450    -5.751830    3.649294
N-N--0.7191    3.997412    1.070275    -0.425452
C-C-0.8539    3.587019    2.267163    -0.934086
C-CT--0.3903    4.328148    2.727659    -2.172145
O-O--0.6290    2.697134    2.905425    -0.447397
H-H1-0.1459    -0.403259    1.006147    0.000000
H-H1-0.1459    -0.364960    -0.516002    0.875939
H-H1-0.1459    -0.345658    -0.522086    -0.883346
H-H-0.3572    1.904244    0.070913    -0.879357
H-HC-0.0997    3.932135    1.221760    2.980082
H-HC-0.0997    5.280920    1.595925    1.907500
H-HC-0.0997    3.792711    2.540594    1.848395
H-HC-0.0347    5.374584    -0.643250    0.891407
H-HC-0.0347    3.984642    -1.403324    0.174983
H-HC-0.0243    4.961565    -2.324757    2.354635
H-HC-0.0243    4.250121    -0.975721    3.182259
H-HC-0.0171    1.985724    -1.764045    2.562723
H-HC-0.0171    2.895638    -2.948110    3.437249
H-HA-0.1313    2.321831    -2.988110    0.420654
H-HA-0.1359    2.415573    -5.293474    0.538377
H-HC-0.0092    3.489249    -4.996952    3.388030
H-HC-0.0092    3.652280    -6.374583    2.342907
H-HC-0.0318    2.088575    -6.754175    4.211273
H-HC-0.0318    1.078605    -5.450743    3.682916
H-HC-0.0435    1.675748    -7.882422    1.943407
H-HC-0.0435    0.550938    -6.602794    1.582338
H-HC-0.1066    -0.068737    -9.543085    1.481809
H-HC-0.1066    -1.088663    -8.196991    1.030257
H-HC-0.1066    -1.663978    -9.398838    2.192307
H-H-0.3529    1.240918    -8.634834    4.409759
H-HC-0.1047    -0.266553    -11.160204    6.333629
H-HC-0.1047    0.314509    -9.559917    6.778083
H-HC-0.1047    1.315523    -10.599305    5.769205
H-H-0.3615    -2.477244    -7.094090    2.199469
H-H1-0.1469    -3.857560    -5.381217    2.890056
H-H1-0.1469    -2.689726    -4.914531    4.122330
H-H1-0.1469    -3.750040    -6.286283    4.403495
H-H-0.3570    4.828120    0.684785    -0.816437
H-HC-0.1060    3.710173    3.434604    -2.706288
H-HC-0.1060    4.588171    1.902533    -2.825678
H-HC-0.1060    5.244771    3.226201    -1.873716

D * 9 10 * F
