--Link1-- 
%chk=CHI4_-60
%NoSave 
#SP HF/6-31G*  Geom=(ModRedundant)  

paramfit run
  
0    1 
C-CT--0.3208    0.000000    0.000000    0.000000
N-N--0.5622    1.448187    0.000000    0.000000
C-C-0.8053    2.123200    0.475920    1.072365
O-O--0.6151    1.590179    0.696732    2.124447
C-CX-0.0839    3.650505    0.594143    0.921539
C-CU--0.3230    4.198902    1.549248    1.986845
C-CU--0.0657    4.307751    -0.809116    1.023981
C-CU--0.0109    4.133566    -1.622781    2.319066
C-CU-0.0816    2.832729    -2.433298    2.484965
C-CM--0.2354    2.579342    -3.423586    1.372579
C-CM--0.2653    2.434271    -3.167338    0.082599
C-CU-0.1214    2.485104    -1.820125    -0.597243
C-CU--0.0354    3.807489    -1.529431    -1.329610
C-CU--0.0984    4.095235    -2.533697    -2.453694
C-CU-0.1300    5.302162    -2.256070    -3.386914
C-CU--0.3561    5.406107    -3.430082    -4.374001
N-N--0.7186    5.046363    -1.025135    -4.122371
C-C-0.8537    6.001300    -0.455982    -4.914341
C-CT--0.3868    5.736699    0.981669    -5.298987
O-O--0.6323    6.979155    -1.045924    -5.281643
C-C-0.7903    6.560350    -2.046043    -2.514230
O-O--0.6136    6.788629    -0.970716    -2.028958
N-N--0.5650    7.317874    -3.130828    -2.243343
C-CT--0.3231    8.537807    -2.995274    -1.474194
N-N--0.7191    3.997412    1.070275    -0.425452
C-C-0.8539    3.587019    2.267163    -0.934086
C-CT--0.3903    4.328148    2.727659    -2.172145
O-O--0.6290    2.697134    2.905425    -0.447397
H-H1-0.1459    -0.403259    1.006147    0.000000
H-H1-0.1459    -0.364960    -0.516002    0.875939
H-H1-0.1459    -0.345658    -0.522086    -0.883346
H-H-0.3572    1.904244    0.070913    -0.879357
H-HC-0.0997    3.932135    1.221760    2.980082
H-HC-0.0997    5.280920    1.595925    1.907500
H-HC-0.0997    3.792711    2.540594    1.848395
H-HC-0.0347    5.374584    -0.643250    0.891407
H-HC-0.0347    3.984642    -1.403324    0.174983
H-HC-0.0243    4.961565    -2.324757    2.354635
H-HC-0.0243    4.250121    -0.975721    3.182259
H-HC-0.0171    1.985724    -1.764045    2.562723
H-HC-0.0171    2.895638    -2.948110    3.437249
H-HA-0.1313    2.516215    -4.454393    1.681717
H-HA-0.1359    2.263076    -4.008392    -0.570915
H-HC-0.0092    2.315348    -1.028960    0.122970
H-HC-0.0092    1.664265    -1.761542    -1.310955
H-HC-0.0318    3.753257    -0.517137    -1.720370
H-HC-0.0318    4.619613    -1.529446    -0.614569
H-HC-0.0435    3.220756    -2.617702    -3.095382
H-HC-0.0435    4.251692    -3.511222    -2.012882
H-HC-0.1066    4.525584    -3.431068    -5.005870
H-HC-0.1066    5.432612    -4.381110    -3.852249
H-HC-0.1066    6.275586    -3.342221    -5.008057
H-H-0.3529    4.442017    -0.377961    -3.669995
H-HC-0.1047    6.304802    1.220611    -6.185117
H-HC-0.1047    6.069152    1.623380    -4.488551
H-HC-0.1047    4.683179    1.169843    -5.475251
H-H-0.3615    7.241915    -3.921152    -2.839102
H-H1-0.1469    8.926852    -3.983408    -1.266452
H-H1-0.1469    8.326466    -2.496192    -0.539915
H-H1-0.1469    9.288441    -2.420967    -2.007556
H-H-0.3570    4.828120    0.684785    -0.816437
H-HC-0.1060    3.710173    3.434604    -2.706288
H-HC-0.1060    4.588171    1.902533    -2.825678
H-HC-0.1060    5.244771    3.226201    -1.873716

D * 9 10 * F
