--Link1-- 
%chk=CHI4_-120
%NoSave 
#SP HF/6-31G*  Geom=(ModRedundant)  

paramfit run
  
0    1 
C-CT--0.3208    0.000000    0.000000    0.000000
N-N--0.5622    1.448187    0.000000    0.000000
C-C-0.8053    2.123200    0.475920    1.072365
O-O--0.6151    1.590179    0.696732    2.124447
C-CX-0.0839    3.650505    0.594143    0.921539
C-CU--0.3230    4.198902    1.549248    1.986845
C-CU--0.0657    4.307751    -0.809116    1.023981
C-CU--0.0109    4.133566    -1.622781    2.319066
C-CU-0.0816    2.832729    -2.433298    2.484965
C-CM--0.2354    2.579342    -3.423586    1.372579
C-CM--0.2653    1.543488    -3.464833    0.550349
C-CU-0.1214    0.356673    -2.531893    0.521230
C-CU--0.0354    0.406098    -1.478506    -0.600152
C-CU--0.0984    0.431670    -2.105093    -2.000741
C-CU-0.1300    0.302932    -1.160317    -3.223635
C-CU--0.3561    0.419162    -2.022393    -4.491217
N-N--0.7186    -1.008762    -0.528231    -3.185454
C-C-0.8537    -1.348005    0.463972    -4.059242
C-CT--0.3868    -2.563865    1.271435    -3.666186
O-O--0.6323    -0.732754    0.684277    -5.065260
C-C-0.7903    1.376638    -0.054848    -3.106086
O-O--0.6136    1.172837    0.918586    -2.431682
N-N--0.5650    2.568672    -0.279573    -3.699832
C-CT--0.3231    3.600941    0.736214    -3.671553
N-N--0.7191    3.997412    1.070275    -0.425452
C-C-0.8539    3.587019    2.267163    -0.934086
C-CT--0.3903    4.328148    2.727659    -2.172145
O-O--0.6290    2.697134    2.905425    -0.447397
H-H1-0.1459    -0.403259    1.006147    0.000000
H-H1-0.1459    -0.364960    -0.516002    0.875939
H-H1-0.1459    -0.345658    -0.522086    -0.883346
H-H-0.3572    1.904244    0.070913    -0.879357
H-HC-0.0997    3.932135    1.221760    2.980082
H-HC-0.0997    5.280920    1.595925    1.907500
H-HC-0.0997    3.792711    2.540594    1.848395
H-HC-0.0347    5.374584    -0.643250    0.891407
H-HC-0.0347    3.984642    -1.403324    0.174983
H-HC-0.0243    4.961565    -2.324757    2.354635
H-HC-0.0243    4.250121    -0.975721    3.182259
H-HC-0.0171    1.985724    -1.764045    2.562723
H-HC-0.0171    2.895638    -2.948110    3.437249
H-HA-0.1313    3.342131    -4.174476    1.244391
H-HA-0.1359    1.534224    -4.247423    -0.192098
H-HC-0.0092    0.261719    -2.014718    1.468320
H-HC-0.0092    -0.548665    -3.127144    0.408834
H-HC-0.0318    -0.457609    -0.829981    -0.482683
H-HC-0.0318    1.273665    -0.847297    -0.459680
H-HC-0.0435    -0.372821    -2.832506    -2.085584
H-HC-0.0435    1.359172    -2.653149    -2.117893
H-HC-0.1066    -0.430632    -2.693704    -4.533338
H-HC-0.1066    1.315366    -2.633743    -4.469967
H-HC-0.1066    0.415836    -1.418260    -5.386064
H-H-0.3529    -1.411805    -0.440740    -2.280682
H-HC-0.1047    -2.968818    1.750600    -4.544523
H-HC-0.1047    -2.256773    2.038300    -2.961389
H-HC-0.1047    -3.326041    0.659294    -3.196343
H-H-0.3615    2.615158    -0.954386    -4.426315
H-H1-0.1469    4.507487    0.319284    -4.090199
H-H1-0.1469    3.789549    1.036359    -2.651276
H-H1-0.1469    3.316447    1.615437    -4.240574
H-H-0.3570    4.828120    0.684785    -0.816437
H-HC-0.1060    3.710173    3.434604    -2.706288
H-HC-0.1060    4.588171    1.902533    -2.825678
H-HC-0.1060    5.244771    3.226201    -1.873716

D * 9 10 * F
