--Link1-- 
%chk=CHI4_-100
%NoSave 
#SP HF/6-31G*  Geom=(ModRedundant)  

paramfit run
  
0    1 
C-CT--0.3208    0.000000    0.000000    0.000000
N-N--0.5622    1.448187    0.000000    0.000000
C-C-0.8053    2.123200    0.475920    1.072365
O-O--0.6151    1.590179    0.696732    2.124447
C-CX-0.0839    3.650505    0.594143    0.921539
C-CU--0.3230    4.198902    1.549248    1.986845
C-CU--0.0657    4.307751    -0.809116    1.023981
C-CU--0.0109    4.133566    -1.622781    2.319066
C-CU-0.0816    2.832729    -2.433298    2.484965
C-CM--0.2354    2.579342    -3.423586    1.372579
C-CM--0.2653    1.771757    -3.280516    0.334266
C-CU-0.1214    0.901950    -2.091165    0.004670
C-CU--0.0354    1.463805    -1.183098    -1.104068
C-CU--0.0984    1.629500    -1.915519    -2.442357
C-CU-0.1300    2.017564    -1.077418    -3.688005
C-CU--0.3561    2.178908    -2.047958    -4.869306
N-N--0.7186    0.937849    -0.142132    -3.972587
C-C-0.8537    1.064335    0.823570    -4.928870
C-CT--0.3868    0.043249    1.935390    -4.851131
O-O--0.6323    1.918522    0.798438    -5.770818
C-C-0.7903    3.288591    -0.263087    -3.356221
O-O--0.6136    3.202162    0.785158    -2.775153
N-N--0.5650    4.481368    -0.823724    -3.651095
C-CT--0.3231    5.709555    -0.093550    -3.413181
N-N--0.7191    3.997412    1.070275    -0.425452
C-C-0.8539    3.587019    2.267163    -0.934086
C-CT--0.3903    4.328148    2.727659    -2.172145
O-O--0.6290    2.697134    2.905425    -0.447397
H-H1-0.1459    -0.403259    1.006147    0.000000
H-H1-0.1459    -0.364960    -0.516002    0.875939
H-H1-0.1459    -0.345658    -0.522086    -0.883346
H-H-0.3572    1.904244    0.070913    -0.879357
H-HC-0.0997    3.932135    1.221760    2.980082
H-HC-0.0997    5.280920    1.595925    1.907500
H-HC-0.0997    3.792711    2.540594    1.848395
H-HC-0.0347    5.374584    -0.643250    0.891407
H-HC-0.0347    3.984642    -1.403324    0.174983
H-HC-0.0243    4.961565    -2.324757    2.354635
H-HC-0.0243    4.250121    -0.975721    3.182259
H-HC-0.0171    1.985724    -1.764045    2.562723
H-HC-0.0171    2.895638    -2.948110    3.437249
H-HA-0.1313    3.131125    -4.346777    1.445845
H-HA-0.1359    1.721684    -4.098120    -0.367714
H-HC-0.0092    0.740955    -1.486595    0.889001
H-HC-0.0092    -0.079819    -2.453665    -0.297520
H-HC-0.0318    0.792883    -0.334932    -1.208241
H-HC-0.0318    2.413224    -0.774185    -0.784343
H-HC-0.0435    0.702536    -2.427982    -2.690660
H-HC-0.0435    2.386377    -2.682287    -2.325937
H-HC-0.1066    1.214538    -2.491446    -5.088144
H-HC-0.1066    2.859963    -2.856200    -4.623766
H-HC-0.1066    2.525883    -1.541169    -5.757288
H-H-0.3529    0.384934    0.119419    -3.188630
H-HC-0.1047    -0.023742    2.421419    -5.812562
H-HC-0.1047    0.377789    2.661524    -4.116327
H-HC-0.1047    -0.934313    1.571823    -4.553516
H-H-0.3615    4.508175    -1.549548    -4.327683
H-H1-0.1469    6.545945    -0.754635    -3.598490
H-H1-0.1469    5.743543    0.238252    -2.385865
H-H1-0.1469    5.792322    0.775988    -4.057237
H-H-0.3570    4.828120    0.684785    -0.816437
H-HC-0.1060    3.710173    3.434604    -2.706288
H-HC-0.1060    4.588171    1.902533    -2.825678
H-HC-0.1060    5.244771    3.226201    -1.873716

D * 9 10 * F
