--Link1-- 
%chk=CHI4_-150
%NoSave 
#SP HF/6-31G*  Geom=(ModRedundant)  

paramfit run
  
0    1 
C-CT--0.3208    0.000000    0.000000    0.000000
N-N--0.5622    1.448187    0.000000    0.000000
C-C-0.8053    2.123200    0.475920    1.072365
O-O--0.6151    1.590179    0.696732    2.124447
C-CX-0.0839    3.650505    0.594143    0.921539
C-CU--0.3230    4.198902    1.549248    1.986845
C-CU--0.0657    4.307751    -0.809116    1.023981
C-CU--0.0109    4.133566    -1.622781    2.319066
C-CU-0.0816    2.832729    -2.433298    2.484965
C-CM--0.2354    2.579342    -3.423586    1.372579
C-CM--0.2653    1.409847    -3.842519    0.917021
C-CU-0.1214    0.037803    -3.434728    1.397602
C-CU--0.0354    -0.677601    -2.421374    0.486078
C-CU--0.0984    -0.916124    -2.963406    -0.929627
C-CU-0.1300    -1.783058    -2.116633    -1.897123
C-CU--0.3561    -1.813703    -2.844003    -3.251171
N-N--0.7186    -3.134217    -2.035816    -1.359193
C-C-0.8537    -4.080812    -1.232545    -1.926440
C-CT--0.3868    -5.288416    -0.959868    -1.059177
O-O--0.6323    -3.969905    -0.774183    -3.029502
C-C-0.7903    -1.199393    -0.686771    -1.956737
O-O--0.6136    -1.488505    0.121304    -1.115691
N-N--0.5650    -0.287570    -0.426505    -2.918413
C-CT--0.3231    0.261014    0.906375    -3.062245
N-N--0.7191    3.997412    1.070275    -0.425452
C-C-0.8539    3.587019    2.267163    -0.934086
C-CT--0.3903    4.328148    2.727659    -2.172145
O-O--0.6290    2.697134    2.905425    -0.447397
H-H1-0.1459    -0.403259    1.006147    0.000000
H-H1-0.1459    -0.364960    -0.516002    0.875939
H-H1-0.1459    -0.345658    -0.522086    -0.883346
H-H-0.3572    1.904244    0.070913    -0.879357
H-HC-0.0997    3.932135    1.221760    2.980082
H-HC-0.0997    5.280920    1.595925    1.907500
H-HC-0.0997    3.792711    2.540594    1.848395
H-HC-0.0347    5.374584    -0.643250    0.891407
H-HC-0.0347    3.984642    -1.403324    0.174983
H-HC-0.0243    4.961565    -2.324757    2.354635
H-HC-0.0243    4.250121    -0.975721    3.182259
H-HC-0.0171    1.985724    -1.764045    2.562723
H-HC-0.0171    2.895638    -2.948110    3.437249
H-HA-0.1313    3.464066    -3.822575    0.903340
H-HA-0.1359    1.422758    -4.554607    0.106760
H-HC-0.0092    0.098508    -3.011607    2.392967
H-HC-0.0092    -0.577971    -4.328988    1.485437
H-HC-0.0318    -1.617615    -2.155364    0.961458
H-HC-0.0318    -0.097723    -1.508904    0.441693
H-HC-0.0435    -1.387985    -3.941645    -0.866945
H-HC-0.0435    0.043978    -3.112203    -1.409642
H-HC-0.1066    -2.330087    -3.788593    -3.125954
H-HC-0.1066    -0.810802    -3.065898    -3.600932
H-HC-0.1066    -2.338213    -2.270125    -4.000365
H-H-0.3529    -3.204191    -2.126702    -0.371491
H-HC-0.1047    -6.112406    -0.655507    -1.686445
H-HC-0.1047    -5.049684    -0.147545    -0.379278
H-HC-0.1047    -5.573233    -1.826090    -0.471877
H-H-0.3615    -0.258763    -1.018011    -3.715031
H-H1-0.1469    1.052741    0.876450    -3.799262
H-H1-0.1469    0.670264    1.236217    -2.118664
H-H1-0.1469    -0.493098    1.620412    -3.377237
H-H-0.3570    4.828120    0.684785    -0.816437
H-HC-0.1060    3.710173    3.434604    -2.706288
H-HC-0.1060    4.588171    1.902533    -2.825678
H-HC-0.1060    5.244771    3.226201    -1.873716

D * 9 10 * F
