--Link1-- 
%chk=CHI4_-70
%NoSave 
#SP HF/6-31G*  Geom=(ModRedundant)  

paramfit run
  
0    1 
C-CT--0.3208    0.000000    0.000000    0.000000
N-N--0.5622    1.448187    0.000000    0.000000
C-C-0.8053    2.123200    0.475920    1.072365
O-O--0.6151    1.590179    0.696732    2.124447
C-CX-0.0839    3.650505    0.594143    0.921539
C-CU--0.3230    4.198902    1.549248    1.986845
C-CU--0.0657    4.307751    -0.809116    1.023981
C-CU--0.0109    4.133566    -1.622781    2.319066
C-CU-0.0816    2.832729    -2.433298    2.484965
C-CM--0.2354    2.579342    -3.423586    1.372579
C-CM--0.2653    2.254821    -3.160238    0.117155
C-CU-0.1214    2.056236    -1.803297    -0.514533
C-CU--0.0354    3.237675    -1.327871    -1.379250
C-CU--0.0984    3.517842    -2.261666    -2.564344
C-CU-0.1300    4.563937    -1.809771    -3.616068
C-CU--0.3561    4.700288    -2.938636    -4.650729
N-N--0.7186    4.071486    -0.606608    -4.272895
C-C-0.8537    4.848867    0.098568    -5.145513
C-CT--0.3868    4.362248    1.497870    -5.445447
O-O--0.6323    5.844231    -0.351595    -5.641240
C-C-0.7903    5.878017    -1.457606    -2.882653
O-O--0.6136    6.023376    -0.372601    -2.387107
N-N--0.5650    6.792590    -2.440771    -2.738005
C-CT--0.3231    8.066399    -2.165133    -2.105837
N-N--0.7191    3.997412    1.070275    -0.425452
C-C-0.8539    3.587019    2.267163    -0.934086
C-CT--0.3903    4.328148    2.727659    -2.172145
O-O--0.6290    2.697134    2.905425    -0.447397
H-H1-0.1459    -0.403259    1.006147    0.000000
H-H1-0.1459    -0.364960    -0.516002    0.875939
H-H1-0.1459    -0.345658    -0.522086    -0.883346
H-H-0.3572    1.904244    0.070913    -0.879357
H-HC-0.0997    3.932135    1.221760    2.980082
H-HC-0.0997    5.280920    1.595925    1.907500
H-HC-0.0997    3.792711    2.540594    1.848395
H-HC-0.0347    5.374584    -0.643250    0.891407
H-HC-0.0347    3.984642    -1.403324    0.174983
H-HC-0.0243    4.961565    -2.324757    2.354635
H-HC-0.0243    4.250121    -0.975721    3.182259
H-HC-0.0171    1.985724    -1.764045    2.562723
H-HC-0.0171    2.895638    -2.948110    3.437249
H-HA-0.1313    2.682995    -4.460376    1.649053
H-HA-0.1359    2.116674    -4.001938    -0.543312
H-HC-0.0092    1.872479    -1.056671    0.248520
H-HC-0.0092    1.157544    -1.835993    -1.129250
H-HC-0.0318    3.011288    -0.322857    -1.724315
H-HC-0.0318    4.120543    -1.238271    -0.760102
H-HC-0.0435    2.592629    -2.444232    -3.106732
H-HC-0.0435    3.846348    -3.220062    -2.179752
H-HC-0.1066    3.759780    -3.039900    -5.179663
H-HC-0.1066    4.906782    -3.889361    -4.170246
H-HC-0.1066    5.472479    -2.725093    -5.374510
H-H-0.3529    3.446737    -0.053182    -3.732413
H-HC-0.1047    4.789282    1.827641    -6.380302
H-HC-0.1047    4.702584    2.159424    -4.654471
H-HC-0.1047    3.280143    1.551791    -5.495681
H-H-0.3615    6.748553    -3.221104    -3.349930
H-H1-0.1469    8.598430    -3.098839    -1.979119
H-H1-0.1469    7.903298    -1.718111    -1.136200
H-H1-0.1469    8.671765    -1.486947    -2.698585
H-H-0.3570    4.828120    0.684785    -0.816437
H-HC-0.1060    3.710173    3.434604    -2.706288
H-HC-0.1060    4.588171    1.902533    -2.825678
H-HC-0.1060    5.244771    3.226201    -1.873716

D * 9 10 * F
