--Link1-- 
%chk=CHI4_30
%NoSave 
#SP HF/6-31G*  Geom=(ModRedundant)  

paramfit run
  
0    1 
C-CT--0.3208    0.000000    0.000000    0.000000
N-N--0.5622    1.448187    0.000000    0.000000
C-C-0.8053    2.123200    0.475920    1.072365
O-O--0.6151    1.590179    0.696732    2.124447
C-CX-0.0839    3.650505    0.594143    0.921539
C-CU--0.3230    4.198902    1.549248    1.986845
C-CU--0.0657    4.307751    -0.809116    1.023981
C-CU--0.0109    4.133566    -1.622781    2.319066
C-CU-0.0816    2.832729    -2.433298    2.484965
C-CM--0.2354    2.579342    -3.423586    1.372579
C-CM--0.2653    3.478394    -4.061605    0.640872
C-CU-0.1214    4.981615    -3.956728    0.736171
C-CU--0.0354    5.654444    -5.136466    1.460798
C-CU--0.0984    5.410676    -6.479325    0.759215
C-CU-0.1300    6.176054    -7.722989    1.280886
C-CU--0.3561    5.710580    -8.934555    0.456938
N-N--0.7186    7.601833    -7.512180    1.070542
C-C-0.8537    8.531689    -8.380869    1.564307
C-CT--0.3868    9.945524    -7.847556    1.602411
O-O--0.6323    8.255351    -9.485762    1.941124
C-C-0.7903    5.924917    -7.853261    2.800322
O-O--0.6136    6.583191    -7.218576    3.579923
N-N--0.5650    4.884089    -8.617698    3.195664
C-CT--0.3231    4.623931    -8.823346    4.605709
N-N--0.7191    3.997412    1.070275    -0.425452
C-C-0.8539    3.587019    2.267163    -0.934086
C-CT--0.3903    4.328148    2.727659    -2.172145
O-O--0.6290    2.697134    2.905425    -0.447397
H-H1-0.1459    -0.403259    1.006147    0.000000
H-H1-0.1459    -0.364960    -0.516002    0.875939
H-H1-0.1459    -0.345658    -0.522086    -0.883346
H-H-0.3572    1.904244    0.070913    -0.879357
H-HC-0.0997    3.932135    1.221760    2.980082
H-HC-0.0997    5.280920    1.595925    1.907500
H-HC-0.0997    3.792711    2.540594    1.848395
H-HC-0.0347    5.374584    -0.643250    0.891407
H-HC-0.0347    3.984642    -1.403324    0.174983
H-HC-0.0243    4.961565    -2.324757    2.354635
H-HC-0.0243    4.250121    -0.975721    3.182259
H-HC-0.0171    1.985724    -1.764045    2.562723
H-HC-0.0171    2.895638    -2.948110    3.437249
H-HA-0.1313    1.540759    -3.625910    1.166366
H-HA-0.1359    3.109490    -4.740806    -0.111695
H-HC-0.0092    5.263223    -3.042018    1.243584
H-HC-0.0092    5.387799    -3.881591    -0.271779
H-HC-0.0318    6.717483    -4.921672    1.525503
H-HC-0.0318    5.296873    -5.180114    2.481125
H-HC-0.0435    5.656366    -6.385013    -0.296378
H-HC-0.0435    4.353309    -6.710658    0.812231
H-HC-0.1066    6.021132    -8.794399    -0.571894
H-HC-0.1066    4.628921    -9.020459    0.460948
H-HC-0.1066    6.146715    -9.853814    0.818169
H-H-0.3529    7.891851    -6.561322    1.048842
H-HC-0.1047    10.635142    -8.677069    1.639781
H-HC-0.1047    10.066783    -7.252959    2.502898
H-HC-0.1047    10.168908    -7.221435    0.745408
H-H-0.3615    4.530069    -9.297190    2.564577
H-H1-0.1469    3.688124    -9.356512    4.710207
H-H1-0.1469    4.543303    -7.868865    5.104801
H-H1-0.1469    5.414819    -9.393651    5.082156
H-H-0.3570    4.828120    0.684785    -0.816437
H-HC-0.1060    3.710173    3.434604    -2.706288
H-HC-0.1060    4.588171    1.902533    -2.825678
H-HC-0.1060    5.244771    3.226201    -1.873716

D * 9 10 * F
