--Link1-- 
%chk=CHI4_-40
%NoSave 
#SP HF/6-31G*  Geom=(ModRedundant)  

paramfit run
  
0    1 
C-CT--0.3208    0.000000    0.000000    0.000000
N-N--0.5622    1.448187    0.000000    0.000000
C-C-0.8053    2.123200    0.475920    1.072365
O-O--0.6151    1.590179    0.696732    2.124447
C-CX-0.0839    3.650505    0.594143    0.921539
C-CU--0.3230    4.198902    1.549248    1.986845
C-CU--0.0657    4.307751    -0.809116    1.023981
C-CU--0.0109    4.133566    -1.622781    2.319066
C-CU-0.0816    2.832729    -2.433298    2.484965
C-CM--0.2354    2.579342    -3.423586    1.372579
C-CM--0.2653    2.788607    -3.252129    0.077370
C-CU-0.1214    3.332030    -2.022505    -0.609995
C-CU--0.0354    4.810783    -2.129400    -1.024032
C-CU--0.0984    5.065737    -3.266887    -2.022048
C-CU-0.1300    6.475956    -3.375457    -2.657768
C-CU--0.3561    6.484313    -4.619936    -3.560349
N-N--0.7186    6.712719    -2.187733    -3.466956
C-C-0.8537    7.930453    -1.940799    -4.031937
C-CT--0.3868    8.136321    -0.520974    -4.507879
O-O--0.6323    8.778125    -2.781991    -4.145912
C-C-0.7903    7.525534    -3.405707    -1.523661
O-O--0.6136    7.913190    -2.381377    -1.029293
N-N--0.5650    7.899560    -4.615509    -1.054124
C-CT--0.3231    8.916317    -4.717244    -0.027450
N-N--0.7191    3.997412    1.070275    -0.425452
C-C-0.8539    3.587019    2.267163    -0.934086
C-CT--0.3903    4.328148    2.727659    -2.172145
O-O--0.6290    2.697134    2.905425    -0.447397
H-H1-0.1459    -0.403259    1.006147    0.000000
H-H1-0.1459    -0.364960    -0.516002    0.875939
H-H1-0.1459    -0.345658    -0.522086    -0.883346
H-H-0.3572    1.904244    0.070913    -0.879357
H-HC-0.0997    3.932135    1.221760    2.980082
H-HC-0.0997    5.280920    1.595925    1.907500
H-HC-0.0997    3.792711    2.540594    1.848395
H-HC-0.0347    5.374584    -0.643250    0.891407
H-HC-0.0347    3.984642    -1.403324    0.174983
H-HC-0.0243    4.961565    -2.324757    2.354635
H-HC-0.0243    4.250121    -0.975721    3.182259
H-HC-0.0171    1.985724    -1.764045    2.562723
H-HC-0.0171    2.895638    -2.948110    3.437249
H-HA-0.1313    2.186478    -4.376728    1.687687
H-HA-0.1359    2.551708    -4.078789    -0.573992
H-HC-0.0092    3.220610    -1.154645    0.028654
H-HC-0.0092    2.729138    -1.826377    -1.495800
H-HC-0.0318    5.106074    -1.172416    -1.445171
H-HC-0.0318    5.420321    -2.266721    -0.140609
H-HC-0.0435    4.359883    -3.189062    -2.846213
H-HC-0.0435    4.864817    -4.211037    -1.529542
H-HC-0.1066    5.792099    -4.459617    -4.378712
H-HC-0.1066    6.150363    -5.499635    -3.019990
H-HC-0.1066    7.462971    -4.803129    -3.977971
H-H-0.3529    6.213017    -1.375508    -3.185351
H-HC-0.1047    8.924954    -0.506181    -5.244697
H-HC-0.1047    8.439491    0.087228    -3.660942
H-HC-0.1047    7.231391    -0.096182    -4.928637
H-H-0.3615    7.752908    -5.411542    -1.628697
H-H1-0.1469    8.982128    -5.748825    0.292598
H-H1-0.1469    8.643856    -4.102713    0.817975
H-H1-0.1469    9.887001    -4.392873    -0.388433
H-H-0.3570    4.828120    0.684785    -0.816437
H-HC-0.1060    3.710173    3.434604    -2.706288
H-HC-0.1060    4.588171    1.902533    -2.825678
H-HC-0.1060    5.244771    3.226201    -1.873716

D * 9 10 * F
