--Link1-- 
%chk=CHI4_130
%NoSave 
#SP HF/6-31G*  Geom=(ModRedundant)  

paramfit run
  
0    1 
C-CT--0.3208    0.000000    0.000000    0.000000
N-N--0.5622    1.448187    0.000000    0.000000
C-C-0.8053    2.123200    0.475920    1.072365
O-O--0.6151    1.590179    0.696732    2.124447
C-CX-0.0839    3.650505    0.594143    0.921539
C-CU--0.3230    4.198902    1.549248    1.986845
C-CU--0.0657    4.307751    -0.809116    1.023981
C-CU--0.0109    4.133566    -1.622781    2.319066
C-CU-0.0816    2.832729    -2.433298    2.484965
C-CM--0.2354    2.579342    -3.423586    1.372579
C-CM--0.2653    2.274219    -4.705840    1.488690
C-CU-0.1214    2.104695    -5.497511    2.763160
C-CU--0.0354    0.639618    -5.758493    3.156864
C-CU--0.0984    -0.121929    -6.570527    2.100662
C-CU-0.1300    -1.553027    -7.056310    2.447968
C-CU--0.3561    -2.109990    -7.782301    1.212582
N-N--0.7186    -1.468169    -7.990417    3.562317
C-C-0.8537    -2.588131    -8.470676    4.177209
C-CT--0.3868    -2.350492    -9.109246    5.526490
O-O--0.6323    -3.681680    -8.395588    3.689711
C-C-0.7903    -2.389616    -5.837970    2.900176
O-O--0.6136    -2.330325    -5.450104    4.035946
N-N--0.5650    -3.094116    -5.181038    1.953550
C-CT--0.3231    -3.939060    -4.062281    2.317766
N-N--0.7191    3.997412    1.070275    -0.425452
C-C-0.8539    3.587019    2.267163    -0.934086
C-CT--0.3903    4.328148    2.727659    -2.172145
O-O--0.6290    2.697134    2.905425    -0.447397
H-H1-0.1459    -0.403259    1.006147    0.000000
H-H1-0.1459    -0.364960    -0.516002    0.875939
H-H1-0.1459    -0.345658    -0.522086    -0.883346
H-H-0.3572    1.904244    0.070913    -0.879357
H-HC-0.0997    3.932135    1.221760    2.980082
H-HC-0.0997    5.280920    1.595925    1.907500
H-HC-0.0997    3.792711    2.540594    1.848395
H-HC-0.0347    5.374584    -0.643250    0.891407
H-HC-0.0347    3.984642    -1.403324    0.174983
H-HC-0.0243    4.961565    -2.324757    2.354635
H-HC-0.0243    4.250121    -0.975721    3.182259
H-HC-0.0171    1.985724    -1.764045    2.562723
H-HC-0.0171    2.895638    -2.948110    3.437249
H-HA-0.1313    2.655810    -3.022261    0.374980
H-HA-0.1359    2.122675    -5.261140    0.576311
H-HC-0.0092    2.592405    -4.991671    3.587617
H-HC-0.0092    2.616334    -6.452272    2.648044
H-HC-0.0318    0.641201    -6.273809    4.113326
H-HC-0.0318    0.141843    -4.813243    3.328772
H-HC-0.0435    0.452509    -7.458134    1.844327
H-HC-0.0435    -0.197369    -5.977928    1.196513
H-HC-0.1066    -1.518911    -8.673834    1.038300
H-HC-0.1066    -2.033259    -7.162991    0.324917
H-HC-0.1066    -3.137369    -8.081943    1.355575
H-H-0.3529    -0.685889    -7.864768    4.163119
H-HC-0.1047    -3.174733    -9.767271    5.756033
H-HC-0.1047    -2.310438    -8.326072    6.277595
H-HC-0.1047    -1.418071    -9.662410    5.557823
H-H-0.3615    -3.308814    -5.656425    1.109025
H-H1-0.1469    -4.315187    -3.604281    1.412401
H-H1-0.1469    -3.362270    -3.333449    2.867987
H-H1-0.1469    -4.775937    -4.373709    2.934535
H-H-0.3570    4.828120    0.684785    -0.816437
H-HC-0.1060    3.710173    3.434604    -2.706288
H-HC-0.1060    4.588171    1.902533    -2.825678
H-HC-0.1060    5.244771    3.226201    -1.873716

D * 9 10 * F
