--Link1-- 
%chk=CHI4_80
%NoSave 
#SP HF/6-31G*  Geom=(ModRedundant)  

paramfit run
  
0    1 
C-CT--0.3208    0.000000    0.000000    0.000000
N-N--0.5622    1.448187    0.000000    0.000000
C-C-0.8053    2.123200    0.475920    1.072365
O-O--0.6151    1.590179    0.696732    2.124447
C-CX-0.0839    3.650505    0.594143    0.921539
C-CU--0.3230    4.198902    1.549248    1.986845
C-CU--0.0657    4.307751    -0.809116    1.023981
C-CU--0.0109    4.133566    -1.622781    2.319066
C-CU-0.0816    2.832729    -2.433298    2.484965
C-CM--0.2354    2.579342    -3.423586    1.372579
C-CM--0.2653    3.116483    -4.623607    1.223627
C-CU-0.1214    4.117466    -5.300290    2.129103
C-CU--0.0354    3.513036    -6.374740    3.050942
C-CU--0.0984    2.865049    -7.527209    2.271943
C-CU-0.1300    2.375430    -8.762200    3.071765
C-CU--0.3561    1.717966    -9.730596    2.075069
N-N--0.7186    3.529763    -9.405859    3.683933
C-C-0.8537    3.386537    -10.436978    4.566733
C-CT--0.3868    4.613853    -10.742807    5.394361
O-O--0.6323    2.366920    -11.058377    4.682435
C-C-0.7903    1.436931    -8.276940    4.199802
O-O--0.6136    1.892522    -7.882425    5.239381
N-N--0.5650    0.115151    -8.220474    3.928342
C-CT--0.3231    -0.824609    -7.823416    4.956641
N-N--0.7191    3.997412    1.070275    -0.425452
C-C-0.8539    3.587019    2.267163    -0.934086
C-CT--0.3903    4.328148    2.727659    -2.172145
O-O--0.6290    2.697134    2.905425    -0.447397
H-H1-0.1459    -0.403259    1.006147    0.000000
H-H1-0.1459    -0.364960    -0.516002    0.875939
H-H1-0.1459    -0.345658    -0.522086    -0.883346
H-H-0.3572    1.904244    0.070913    -0.879357
H-HC-0.0997    3.932135    1.221760    2.980082
H-HC-0.0997    5.280920    1.595925    1.907500
H-HC-0.0997    3.792711    2.540594    1.848395
H-HC-0.0347    5.374584    -0.643250    0.891407
H-HC-0.0347    3.984642    -1.403324    0.174983
H-HC-0.0243    4.961565    -2.324757    2.354635
H-HC-0.0243    4.250121    -0.975721    3.182259
H-HC-0.0171    1.985724    -1.764045    2.562723
H-HC-0.0171    2.895638    -2.948110    3.437249
H-HA-0.1313    1.873701    -3.101708    0.623861
H-HA-0.1359    2.810563    -5.197292    0.362778
H-HC-0.0092    4.620774    -4.567030    2.747550
H-HC-0.0092    4.889643    -5.756912    1.511178
H-HC-0.0318    4.306981    -6.742102    3.695201
H-HC-0.0318    2.785924    -5.914830    3.707159
H-HC-0.0435    3.565841    -7.898674    1.527336
H-HC-0.0435    2.010908    -7.140570    1.728524
H-HC-0.1066    2.476505    -10.091542    1.390293
H-HC-0.1066    0.958155    -9.230153    1.483779
H-HC-0.1066    1.282616    -10.582764    2.575087
H-H-0.3529    4.302722    -8.807439    3.865979
H-HC-0.1047    4.546471    -11.753987    5.765893
H-HC-0.1047    4.639305    -10.062021    6.239943
H-HC-0.1047    5.529980    -10.619343    4.827044
H-H-0.3615    -0.236869    -8.765648    3.177225
H-H1-0.1469    -1.805079    -7.725423    4.509429
H-H1-0.1469    -0.529975    -6.870895    5.371997
H-H1-0.1469    -0.870601    -8.549221    5.762150
H-H-0.3570    4.828120    0.684785    -0.816437
H-HC-0.1060    3.710173    3.434604    -2.706288
H-HC-0.1060    4.588171    1.902533    -2.825678
H-HC-0.1060    5.244771    3.226201    -1.873716

D * 9 10 * F
