--Link1-- 
%chk=CHI4_-140
%NoSave 
#SP HF/6-31G*  Geom=(ModRedundant)  

paramfit run
  
0    1 
C-CT--0.3208    0.000000    0.000000    0.000000
N-N--0.5622    1.448187    0.000000    0.000000
C-C-0.8053    2.123200    0.475920    1.072365
O-O--0.6151    1.590179    0.696732    2.124447
C-CX-0.0839    3.650505    0.594143    0.921539
C-CU--0.3230    4.198902    1.549248    1.986845
C-CU--0.0657    4.307751    -0.809116    1.023981
C-CU--0.0109    4.133566    -1.622781    2.319066
C-CU-0.0816    2.832729    -2.433298    2.484965
C-CM--0.2354    2.579342    -3.423586    1.372579
C-CM--0.2653    1.423849    -3.707917    0.794004
C-CU-0.1214    0.071084    -3.112998    1.103605
C-CU--0.0354    -0.400449    -2.051379    0.093562
C-CU--0.0984    -0.547171    -2.610229    -1.328082
C-CU-0.1300    -1.183307    -1.696666    -2.407610
C-CU--0.3561    -1.156130    -2.463232    -3.739934
N-N--0.7186    -2.564270    -1.426432    -2.031516
C-C-0.8537    -3.329335    -0.531348    -2.721848
C-CT--0.3868    -4.580880    -0.077026    -2.006284
O-O--0.6323    -3.037204    -0.131169    -3.814395
C-C-0.7903    -0.416373    -0.355019    -2.430437
O-O--0.6136    -0.690701    0.513201    -1.646303
N-N--0.5650    0.623361    -0.247134    -3.285594
C-CT--0.3231    1.352599    0.999727    -3.394000
N-N--0.7191    3.997412    1.070275    -0.425452
C-C-0.8539    3.587019    2.267163    -0.934086
C-CT--0.3903    4.328148    2.727659    -2.172145
O-O--0.6290    2.697134    2.905425    -0.447397
H-H1-0.1459    -0.403259    1.006147    0.000000
H-H1-0.1459    -0.364960    -0.516002    0.875939
H-H1-0.1459    -0.345658    -0.522086    -0.883346
H-H-0.3572    1.904244    0.070913    -0.879357
H-HC-0.0997    3.932135    1.221760    2.980082
H-HC-0.0997    5.280920    1.595925    1.907500
H-HC-0.0997    3.792711    2.540594    1.848395
H-HC-0.0347    5.374584    -0.643250    0.891407
H-HC-0.0347    3.984642    -1.403324    0.174983
H-HC-0.0243    4.961565    -2.324757    2.354635
H-HC-0.0243    4.250121    -0.975721    3.182259
H-HC-0.0171    1.985724    -1.764045    2.562723
H-HC-0.0171    2.895638    -2.948110    3.437249
H-HA-0.1313    3.451853    -3.947870    1.017665
H-HA-0.1359    1.435041    -4.445006    0.006390
H-HC-0.0092    0.074268    -2.664915    2.089849
H-HC-0.0092    -0.661267    -3.918602    1.139069
H-HC-0.0318    -1.345346    -1.651720    0.451075
H-HC-0.0318    0.294030    -1.221609    0.096695
H-HC-0.0435    -1.145796    -3.518162    -1.299114
H-HC-0.0435    0.433220    -2.896393    -1.690428
H-HC-0.1066    -1.801263    -3.329909    -3.654751
H-HC-0.1066    -0.157623    -2.822514    -3.966388
H-HC-0.1066    -1.514687    -1.855451    -4.557112
H-H-0.3529    -2.755559    -1.471690    -1.056800
H-HC-0.1047    -5.283056    0.305810    -2.731161
H-HC-0.1047    -4.316566    0.722921    -1.321195
H-HC-0.1047    -5.039445    -0.878389    -1.437147
H-H-0.3615    0.664307    -0.866193    -4.060448
H-H1-0.1469    2.211269    0.843282    -4.033633
H-H1-0.1469    1.692896    1.309469    -2.416818
H-H1-0.1469    0.737375    1.791256    -3.809616
H-H-0.3570    4.828120    0.684785    -0.816437
H-HC-0.1060    3.710173    3.434604    -2.706288
H-HC-0.1060    4.588171    1.902533    -2.825678
H-HC-0.1060    5.244771    3.226201    -1.873716

D * 9 10 * F
