--Link1-- 
%chk=CHI4_-160
%NoSave 
#SP HF/6-31G*  Geom=(ModRedundant)  

paramfit run
  
0    1 
C-CT--0.3208    0.000000    0.000000    0.000000
N-N--0.5622    1.448187    0.000000    0.000000
C-C-0.8053    2.123200    0.475920    1.072365
O-O--0.6151    1.590179    0.696732    2.124447
C-CX-0.0839    3.650505    0.594143    0.921539
C-CU--0.3230    4.198902    1.549248    1.986845
C-CU--0.0657    4.307751    -0.809116    1.023981
C-CU--0.0109    4.133566    -1.622781    2.319066
C-CU-0.0816    2.832729    -2.433298    2.484965
C-CM--0.2354    2.579342    -3.423586    1.372579
C-CM--0.2653    1.427270    -3.980449    1.035843
C-CU-0.1214    0.079630    -3.764388    1.681551
C-CU--0.0354    -0.858555    -2.832618    0.893402
C-CU--0.0984    -1.188959    -3.369998    -0.505515
C-CU-0.1300    -2.261892    -2.621774    -1.338355
C-CU--0.3561    -2.356965    -3.317303    -2.706073
N-N--0.7186    -3.541059    -2.728399    -0.649956
C-C-0.8537    -4.640676    -2.042340    -1.077999
C-CT--0.3868    -5.764514    -1.947349    -0.071634
O-O--0.6323    -4.716877    -1.549545    -2.169094
C-C-0.7903    -1.874179    -1.127398    -1.410766
O-O--0.6136    -2.163683    -0.382102    -0.513743
N-N--0.5650    -1.119931    -0.730319    -2.458345
C-CT--0.3231    -0.764288    0.665207    -2.613997
N-N--0.7191    3.997412    1.070275    -0.425452
C-C-0.8539    3.587019    2.267163    -0.934086
C-CT--0.3903    4.328148    2.727659    -2.172145
O-O--0.6290    2.697134    2.905425    -0.447397
H-H1-0.1459    -0.403259    1.006147    0.000000
H-H1-0.1459    -0.364960    -0.516002    0.875939
H-H1-0.1459    -0.345658    -0.522086    -0.883346
H-H-0.3572    1.904244    0.070913    -0.879357
H-HC-0.0997    3.932135    1.221760    2.980082
H-HC-0.0997    5.280920    1.595925    1.907500
H-HC-0.0997    3.792711    2.540594    1.848395
H-HC-0.0347    5.374584    -0.643250    0.891407
H-HC-0.0347    3.984642    -1.403324    0.174983
H-HC-0.0243    4.961565    -2.324757    2.354635
H-HC-0.0243    4.250121    -0.975721    3.182259
H-HC-0.0171    1.985724    -1.764045    2.562723
H-HC-0.0171    2.895638    -2.948110    3.437249
H-HA-0.1313    3.447060    -3.694292    0.793011
H-HA-0.1359    1.436100    -4.667037    0.203810
H-HC-0.0092    0.201212    -3.358762    2.678622
H-HC-0.0092    -0.404041    -4.732577    1.805108
H-HC-0.0318    -1.763255    -2.701035    1.480410
H-HC-0.0318    -0.407521    -1.851974    0.817675
H-HC-0.0435    -1.523155    -4.402249    -0.426108
H-HC-0.0435    -0.279796    -3.382681    -1.095100
H-HC-0.1066    -2.732037    -4.323326    -2.558355
H-HC-0.1066    -1.381339    -3.399745    -3.173768
H-HC-0.1066    -3.032834    -2.800011    -3.370414
H-H-0.3529    -3.484250    -2.849086    0.335397
H-HC-0.1047    -6.687324    -1.738689    -0.591196
H-HC-0.1047    -5.553148    -1.125957    0.606425
H-HC-0.1047    -5.867863    -2.855758    0.511885
H-H-0.3615    -1.109078    -1.295608    -3.274212
H-H1-0.1469    -0.065750    0.754156    -3.435614
H-H1-0.1469    -0.293528    1.024639    -1.710770
H-H1-0.1469    -1.633817    1.282239    -2.816342
H-H-0.3570    4.828120    0.684785    -0.816437
H-HC-0.1060    3.710173    3.434604    -2.706288
H-HC-0.1060    4.588171    1.902533    -2.825678
H-HC-0.1060    5.244771    3.226201    -1.873716

D * 9 10 * F
