--Link1-- 
%chk=CHI4_60
%NoSave 
#SP HF/6-31G*  Geom=(ModRedundant)  

paramfit run
  
0    1 
C-CT--0.3208    0.000000    0.000000    0.000000
N-N--0.5622    1.448187    0.000000    0.000000
C-C-0.8053    2.123200    0.475920    1.072365
O-O--0.6151    1.590179    0.696732    2.124447
C-CX-0.0839    3.650505    0.594143    0.921539
C-CU--0.3230    4.198902    1.549248    1.986845
C-CU--0.0657    4.307751    -0.809116    1.023981
C-CU--0.0109    4.133566    -1.622781    2.319066
C-CU-0.0816    2.832729    -2.433298    2.484965
C-CM--0.2354    2.579342    -3.423586    1.372579
C-CM--0.2653    3.344751    -4.439290    1.007544
C-CU-0.1214    4.662743    -4.859562    1.612543
C-CU--0.0354    4.570743    -6.079332    2.547027
C-CU--0.0984    4.062879    -7.337637    1.830327
C-CU-0.1300    4.090062    -8.679304    2.607396
C-CU--0.3561    3.477713    -9.756162    1.696982
N-N--0.7186    5.476375    -9.019762    2.896802
C-C-0.8537    5.798878    -10.077382    3.697107
C-CT--0.3868    7.220968    -10.078856    4.209419
O-O--0.6323    5.018197    -10.944218    3.976879
C-C-0.7903    3.348884    -8.485182    3.949669
O-O--0.6136    3.921846    -8.015855    4.895911
N-N--0.5650    2.027846    -8.764627    3.977081
C-CT--0.3231    1.284004    -8.653181    5.215015
N-N--0.7191    3.997412    1.070275    -0.425452
C-C-0.8539    3.587019    2.267163    -0.934086
C-CT--0.3903    4.328148    2.727659    -2.172145
O-O--0.6290    2.697134    2.905425    -0.447397
H-H1-0.1459    -0.403259    1.006147    0.000000
H-H1-0.1459    -0.364960    -0.516002    0.875939
H-H1-0.1459    -0.345658    -0.522086    -0.883346
H-H-0.3572    1.904244    0.070913    -0.879357
H-HC-0.0997    3.932135    1.221760    2.980082
H-HC-0.0997    5.280920    1.595925    1.907500
H-HC-0.0997    3.792711    2.540594    1.848395
H-HC-0.0347    5.374584    -0.643250    0.891407
H-HC-0.0347    3.984642    -1.403324    0.174983
H-HC-0.0243    4.961565    -2.324757    2.354635
H-HC-0.0243    4.250121    -0.975721    3.182259
H-HC-0.0171    1.985724    -1.764045    2.562723
H-HC-0.0171    2.895638    -2.948110    3.437249
H-HA-0.1313    1.662695    -3.274009    0.825315
H-HA-0.1359    2.998024    -5.047990    0.187163
H-HC-0.0092    5.100011    -4.038907    2.168231
H-HC-0.0092    5.358492    -5.083434    0.804824
H-HC-0.0318    5.557474    -6.247054    2.969644
H-HC-0.0318    3.925483    -5.841720    3.382497
H-HC-0.0435    4.641199    -7.494151    0.922261
H-HC-0.0435    3.038113    -7.169710    1.520481
H-HC-0.1066    4.121675    -9.889285    0.835488
H-HC-0.1066    2.502752    -9.452612    1.329981
H-HC-0.1066    3.392664    -10.705675    2.203866
H-H-0.3529    6.099462    -8.247282    2.958032
H-HC-0.1047    7.491549    -11.083172    4.497856
H-HC-0.1047    7.273868    -9.438800    5.085007
H-HC-0.1047    7.921710    -9.706815    3.469872
H-H-0.3615    1.656147    -9.360812    3.275858
H-H1-0.1469    0.233378    -8.799343    5.001140
H-H1-0.1469    1.424018    -7.669004    5.637410
H-H1-0.1469    1.605274    -9.388672    5.945489
H-H-0.3570    4.828120    0.684785    -0.816437
H-HC-0.1060    3.710173    3.434604    -2.706288
H-HC-0.1060    4.588171    1.902533    -2.825678
H-HC-0.1060    5.244771    3.226201    -1.873716

D * 9 10 * F
