--Link1-- 
%chk=CHI4_160
%NoSave 
#SP HF/6-31G*  Geom=(ModRedundant)  

paramfit run
  
0    1 
C-CT--0.3208    0.000000    0.000000    0.000000
N-N--0.5622    1.448187    0.000000    0.000000
C-C-0.8053    2.123200    0.475920    1.072365
O-O--0.6151    1.590179    0.696732    2.124447
C-CX-0.0839    3.650505    0.594143    0.921539
C-CU--0.3230    4.198902    1.549248    1.986845
C-CU--0.0657    4.307751    -0.809116    1.023981
C-CU--0.0109    4.133566    -1.622781    2.319066
C-CU-0.0816    2.832729    -2.433298    2.484965
C-CM--0.2354    2.579342    -3.423586    1.372579
C-CM--0.2653    1.786846    -4.482780    1.401131
C-CU-0.1214    0.939644    -4.964751    2.554260
C-CU--0.0354    -0.557124    -4.629508    2.424400
C-CU--0.0984    -1.201738    -5.267216    1.186371
C-CU-0.1300    -2.740586    -5.158498    1.028974
C-CU--0.3561    -3.118545    -5.815658    -0.308463
N-N--0.7186    -3.371234    -5.885713    2.122122
C-C-0.8537    -4.720619    -5.842114    2.322915
C-CT--0.3868    -5.178332    -6.315476    3.683515
O-O--0.6323    -5.491317    -5.458673    1.487369
C-C-0.7903    -3.142481    -3.670404    1.142018
O-O--0.6136    -3.295859    -3.164435    2.221092
N-N--0.5650    -3.209119    -2.955272    -0.001716
C-CT--0.3231    -3.629028    -1.569267    0.027769
N-N--0.7191    3.997412    1.070275    -0.425452
C-C-0.8539    3.587019    2.267163    -0.934086
C-CT--0.3903    4.328148    2.727659    -2.172145
O-O--0.6290    2.697134    2.905425    -0.447397
H-H1-0.1459    -0.403259    1.006147    0.000000
H-H1-0.1459    -0.364960    -0.516002    0.875939
H-H1-0.1459    -0.345658    -0.522086    -0.883346
H-H-0.3572    1.904244    0.070913    -0.879357
H-HC-0.0997    3.932135    1.221760    2.980082
H-HC-0.0997    5.280920    1.595925    1.907500
H-HC-0.0997    3.792711    2.540594    1.848395
H-HC-0.0347    5.374584    -0.643250    0.891407
H-HC-0.0347    3.984642    -1.403324    0.174983
H-HC-0.0243    4.961565    -2.324757    2.354635
H-HC-0.0243    4.250121    -0.975721    3.182259
H-HC-0.0171    1.985724    -1.764045    2.562723
H-HC-0.0171    2.895638    -2.948110    3.437249
H-HA-0.1313    3.109979    -3.228123    0.454793
H-HA-0.1359    1.726353    -5.077605    0.503197
H-HC-0.0092    1.300958    -4.547479    3.486356
H-HC-0.0092    1.054918    -6.044490    2.640691
H-HC-0.0318    -1.050717    -4.963948    3.332635
H-HC-0.0318    -0.681653    -3.555018    2.396234
H-HC-0.0435    -0.962180    -6.328102    1.160578
H-HC-0.0435    -0.759074    -4.827525    0.300329
H-HC-0.1066    -2.891552    -6.873866    -0.251431
H-HC-0.1066    -2.538427    -5.402630    -1.127152
H-HC-0.1066    -4.171385    -5.708056    -0.522214
H-H-0.3529    -2.829676    -5.956912    2.953000
H-HC-0.1047    -6.218642    -6.597815    3.627825
H-HC-0.1047    -5.077371    -5.494738    4.387305
H-HC-0.1047    -4.588872    -7.151271    4.044578
H-H-0.3615    -3.315062    -3.443890    -0.859235
H-H1-0.1469    -3.499059    -1.147799    -0.960357
H-H1-0.1469    -3.019507    -1.018257    0.728838
H-H1-0.1469    -4.668126    -1.469513    0.324550
H-H-0.3570    4.828120    0.684785    -0.816437
H-HC-0.1060    3.710173    3.434604    -2.706288
H-HC-0.1060    4.588171    1.902533    -2.825678
H-HC-0.1060    5.244771    3.226201    -1.873716

D * 9 10 * F
