--Link1-- 
%chk=CHI4_100
%NoSave 
#SP HF/6-31G*  Geom=(ModRedundant)  

paramfit run
  
0    1 
C-CT--0.3208    0.000000    0.000000    0.000000
N-N--0.5622    1.448187    0.000000    0.000000
C-C-0.8053    2.123200    0.475920    1.072365
O-O--0.6151    1.590179    0.696732    2.124447
C-CX-0.0839    3.650505    0.594143    0.921539
C-CU--0.3230    4.198902    1.549248    1.986845
C-CU--0.0657    4.307751    -0.809116    1.023981
C-CU--0.0109    4.133566    -1.622781    2.319066
C-CU-0.0816    2.832729    -2.433298    2.484965
C-CM--0.2354    2.579342    -3.423586    1.372579
C-CM--0.2653    2.807117    -4.726926    1.386074
C-CU-0.1214    3.378269    -5.547484    2.517544
C-CU--0.0354    2.331745    -6.357052    3.304279
C-CU--0.0984    1.592706    -7.378356    2.429251
C-CU-0.1300    0.639216    -8.381648    3.128470
C-CU--0.3561    -0.013981    -9.241709    2.034359
N-N--0.7186    1.426840    -9.233284    4.009319
C-C-0.8537    0.834150    -10.117479    4.863704
C-CT--0.3868    1.731097    -10.642170    5.961424
O-O--0.6323    -0.311397    -10.457482    4.757581
C-C-0.7903    -0.363352    -7.585404    3.994251
O-O--0.6136    -0.057821    -7.226276    5.099514
N-N--0.5650    -1.534228    -7.230242    3.422507
C-CT--0.3231    -2.539163    -6.527482    4.193504
N-N--0.7191    3.997412    1.070275    -0.425452
C-C-0.8539    3.587019    2.267163    -0.934086
C-CT--0.3903    4.328148    2.727659    -2.172145
O-O--0.6290    2.697134    2.905425    -0.447397
H-H1-0.1459    -0.403259    1.006147    0.000000
H-H1-0.1459    -0.364960    -0.516002    0.875939
H-H1-0.1459    -0.345658    -0.522086    -0.883346
H-H-0.3572    1.904244    0.070913    -0.879357
H-HC-0.0997    3.932135    1.221760    2.980082
H-HC-0.0997    5.280920    1.595925    1.907500
H-HC-0.0997    3.792711    2.540594    1.848395
H-HC-0.0347    5.374584    -0.643250    0.891407
H-HC-0.0347    3.984642    -1.403324    0.174983
H-HC-0.0243    4.961565    -2.324757    2.354635
H-HC-0.0243    4.250121    -0.975721    3.182259
H-HC-0.0171    1.985724    -1.764045    2.562723
H-HC-0.0171    2.895638    -2.948110    3.437249
H-HA-0.1313    2.160538    -3.004494    0.471980
H-HA-0.1359    2.557435    -5.280307    0.494340
H-HC-0.0092    3.907556    -4.909380    3.214784
H-HC-0.0092    4.121100    -6.231180    2.108454
H-HC-0.0318    2.844562    -6.850750    4.125044
H-HC-0.0318    1.623888    -5.677921    3.760951
H-HC-0.0435    2.317804    -7.973273    1.878034
H-HC-0.0435    1.006347    -6.842564    1.692054
H-HC-0.1066    0.755229    -9.835456    1.554400
H-HC-0.1066    -0.471749    -8.623298    1.269246
H-HC-0.1066    -0.752453    -9.914578    2.443805
H-H-0.3529    2.269710    -8.829239    4.348481
H-HC-0.1047    1.325776    -11.569921    6.335662
H-HC-0.1047    1.747741    -9.917918    6.770318
H-HC-0.1047    2.748407    -10.796652    5.618498
H-H-0.3615    -1.843723    -7.735299    2.625990
H-H1-0.1469    -3.339906    -6.231112    3.528750
H-H1-0.1469    -2.105628    -5.644051    4.638727
H-H1-0.1469    -2.944651    -7.147391    4.986629
H-H-0.3570    4.828120    0.684785    -0.816437
H-HC-0.1060    3.710173    3.434604    -2.706288
H-HC-0.1060    4.588171    1.902533    -2.825678
H-HC-0.1060    5.244771    3.226201    -1.873716

D * 9 10 * F
