--Link1-- 
%chk=CHI5_0
%NoSave 
#SP HF/6-31G*  Geom=(ModRedundant)  

paramfit run
  
0    1 
C-CT--0.3208    0.000000    0.000000    0.000000
N-N--0.5622    1.448187    0.000000    0.000000
C-C-0.8053    2.123200    0.475920    1.072365
O-O--0.6151    1.590179    0.696732    2.124447
C-CX-0.0839    3.650505    0.594143    0.921539
C-CU--0.3230    4.198902    1.549248    1.986845
C-CU--0.0657    4.307751    -0.809116    1.023981
C-CU--0.0109    4.133566    -1.622781    2.319066
C-CU-0.0816    2.832729    -2.433298    2.484965
C-CM--0.2354    2.579342    -3.423586    1.372579
C-CM--0.2653    2.834093    -4.721989    1.375535
C-CU-0.1214    3.441745    -5.535856    2.492734
C-CU--0.0354    2.426047    -6.370552    3.293487
C-CU--0.0984    1.692968    -7.402803    2.426327
C-CU-0.1300    0.772723    -8.428846    3.136982
C-CU--0.3561    0.118298    -9.297092    2.050093
N-N--0.7186    1.593018    -9.268137    3.999674
C-C-0.8537    1.033708    -10.168381    4.859785
C-CT--0.3868    1.960356    -10.679556    5.939057
O-O--0.6323    -0.106282    -10.531484    4.771919
C-C-0.7903    -0.230699    -7.657551    4.024097
O-O--0.6136    0.086692    -7.297363    5.125667
N-N--0.5650    -1.418472    -7.323989    3.474632
C-CT--0.3231    -2.423997    -6.645763    4.266548
N-N--0.7191    3.997412    1.070275    -0.425452
C-C-0.8539    3.587019    2.267163    -0.934086
C-CT--0.3903    4.328148    2.727659    -2.172145
O-O--0.6290    2.697134    2.905425    -0.447397
H-H1-0.1459    -0.403259    1.006147    0.000000
H-H1-0.1459    -0.364960    -0.516002    0.875939
H-H1-0.1459    -0.345658    -0.522086    -0.883346
H-H-0.3572    1.904244    0.070913    -0.879357
H-HC-0.0997    3.932135    1.221760    2.980082
H-HC-0.0997    5.280920    1.595925    1.907500
H-HC-0.0997    3.792711    2.540594    1.848395
H-HC-0.0347    5.374584    -0.643250    0.891407
H-HC-0.0347    3.984642    -1.403324    0.174983
H-HC-0.0243    4.961565    -2.324757    2.354635
H-HC-0.0243    4.250121    -0.975721    3.182259
H-HC-0.0171    1.985724    -1.764045    2.562723
H-HC-0.0171    2.895638    -2.948110    3.437249
H-HA-0.1313    2.135502    -3.009181    0.481856
H-HA-0.1359    2.580270    -5.276232    0.485507
H-HC-0.0092    3.969921    -4.890221    3.183857
H-HC-0.0092    4.191209    -6.202134    2.067326
H-HC-0.0318    2.963216    -6.857383    4.102696
H-HC-0.0318    1.712472    -5.708338    3.765836
H-HC-0.0435    2.420388    -7.980022    1.859572
H-HC-0.0435    1.082881    -6.875798    1.702165
H-HC-0.1066    0.891039    -9.872563    1.553822
H-HC-0.1066    -0.365434    -8.684698    1.296197
H-HC-0.1066    -0.598884    -9.986987    2.468942
H-H-0.3529    2.433205    -8.848353    4.326136
H-HC-0.1047    1.580833    -11.617226    6.315617
H-HC-0.1047    1.976258    -9.958910    6.751179
H-HC-0.1047    2.974466    -10.811375    5.577689
H-H-0.3615    -1.731414    -7.831601    2.681090
H-H1-0.1469    -3.242191    -6.362896    3.617345
H-H1-0.1469    -2.001001    -5.755656    4.708600
H-H1-0.1469    -2.802684    -7.277624    5.063481
H-H-0.3570    4.828120    0.684785    -0.816437
H-HC-0.1060    3.710173    3.434604    -2.706288
H-HC-0.1060    4.588171    1.902533    -2.825678
H-HC-0.1060    5.244771    3.226201    -1.873716

D * 10 11 * F
