--Link1-- 
%chk=CHI5_-20
%NoSave 
#SP HF/6-31G*  Geom=(ModRedundant)  

paramfit run
  
0    1 
C-CT--0.3208    0.000000    0.000000    0.000000
N-N--0.5622    1.448187    0.000000    0.000000
C-C-0.8053    2.123200    0.475920    1.072365
O-O--0.6151    1.590179    0.696732    2.124447
C-CX-0.0839    3.650505    0.594143    0.921539
C-CU--0.3230    4.198902    1.549248    1.986845
C-CU--0.0657    4.307751    -0.809116    1.023981
C-CU--0.0109    4.133566    -1.622781    2.319066
C-CU-0.0816    2.832729    -2.433298    2.484965
C-CM--0.2354    2.579342    -3.423586    1.372579
C-CM--0.2653    2.834093    -4.721989    1.375535
C-CU-0.1214    3.790093    -5.468004    2.275135
C-CU--0.0354    3.111021    -6.235862    3.423534
C-CU--0.0984    2.140426    -7.313880    2.922798
C-CU-0.1300    1.523057    -8.279738    3.967124
C-CU--0.3561    0.551055    -9.209514    3.222693
N-N--0.7186    2.594197    -9.070432    4.557882
C-C-0.8537    2.365630    -9.905338    5.613224
C-CT--0.3868    3.606153    -10.355709    6.350158
O-O--0.6323    1.266209    -10.259544    5.937189
C-C-0.7903    0.867464    -7.439669    5.086592
O-O--0.6136    1.532333    -7.011753    5.991449
N-N--0.5650    -0.439304    -7.128522    4.946864
C-CT--0.3231    -1.127842    -6.387544    5.983720
N-N--0.7191    3.997412    1.070275    -0.425452
C-C-0.8539    3.587019    2.267163    -0.934086
C-CT--0.3903    4.328148    2.727659    -2.172145
O-O--0.6290    2.697134    2.905425    -0.447397
H-H1-0.1459    -0.403259    1.006147    0.000000
H-H1-0.1459    -0.364960    -0.516002    0.875939
H-H1-0.1459    -0.345658    -0.522086    -0.883346
H-H-0.3572    1.904244    0.070913    -0.879357
H-HC-0.0997    3.932135    1.221760    2.980082
H-HC-0.0997    5.280920    1.595925    1.907500
H-HC-0.0997    3.792711    2.540594    1.848395
H-HC-0.0347    5.374584    -0.643250    0.891407
H-HC-0.0347    3.984642    -1.403324    0.174983
H-HC-0.0243    4.961565    -2.324757    2.354635
H-HC-0.0243    4.250121    -0.975721    3.182259
H-HC-0.0171    1.985724    -1.764045    2.562723
H-HC-0.0171    2.895638    -2.948110    3.437249
H-HA-0.1313    2.135502    -3.009181    0.481856
H-HA-0.1359    2.302166    -5.330397    0.660934
H-HC-0.0092    4.512706    -4.784815    2.704725
H-HC-0.0092    4.360330    -6.169861    1.667828
H-HC-0.0318    3.893778    -6.674956    4.035794
H-HC-0.0318    2.590388    -5.535411    4.063175
H-HC-0.0435    2.641511    -7.935899    2.184190
H-HC-0.0435    1.317104    -6.828226    2.412277
H-HC-0.1066    1.118467    -9.825708    2.534994
H-HC-0.1066    -0.164137    -8.642153    2.636193
H-HC-0.1066    0.023440    -9.861621    3.902485
H-H-0.3529    3.490707    -8.640347    4.554995
H-HC-0.1047    3.385028    -11.261923    6.893244
H-HC-0.1047    3.886058    -9.583497    7.060416
H-HC-0.1047    4.441481    -10.523312    5.678951
H-H-0.3615    -0.995026    -7.683344    4.339694
H-H1-0.1469    -2.119432    -6.138026    5.629586
H-H1-0.1469    -0.590499    -5.475519    6.198427
H-H1-0.1469    -1.210334    -6.961016    6.901369
H-H-0.3570    4.828120    0.684785    -0.816437
H-HC-0.1060    3.710173    3.434604    -2.706288
H-HC-0.1060    4.588171    1.902533    -2.825678
H-HC-0.1060    5.244771    3.226201    -1.873716

D * 10 11 * F
